216
Lattice="13.453615425789224 0.0 0.0 0.0 13.453615425789224 0.0 0.0 0.0 13.453615425789224" Properties=species:S:1:pos:R:3:tags:I:1 sqs_abs_alpha=0.10054309327036598 energy=-2238.542968741545 mc_step=100 energy_method=uma rosenbluth_W_new=2.7888475726413198 rosenbluth_W_old=3.9062088569372078 pbc="T T T"
Zr       0.00000000       0.00000000       0.00000000        1
Ti       0.00000000       2.24226924       2.24226924        1
Nb       2.24226924       0.00000000       2.24226924        1
Ti       2.24226924       2.24226924       0.00000000        1
N        2.24226924       2.24226924       2.24226924        2
N        2.24226924       0.00000000       0.00000000        2
N        0.00000000       2.24226924       0.00000000        2
N        0.00000000       0.00000000       2.24226924        2
Hf       0.00000000       0.00000000       4.48453848        1
Ta       0.00000000       2.24226924       6.72680771        1
Hf       2.24226924       0.00000000       6.72680771        1
Ti       2.24226924       2.24226924       4.48453848        1
N        2.24226924       2.24226924       6.72680771        2
N        2.24226924       0.00000000       4.48453848        2
N        0.00000000       2.24226924       4.48453848        2
N        0.00000000       0.00000000       6.72680771        2
Hf       0.00000000       0.00000000       8.96907695        1
Zr       0.00000000       2.24226924      11.21134619        1
Ta       2.24226924       0.00000000      11.21134619        1
Ta       2.24226924       2.24226924       8.96907695        1
N        2.24226924       2.24226924      11.21134619        2
N        2.24226924       0.00000000       8.96907695        2
N        0.00000000       2.24226924       8.96907695        2
N        0.00000000       0.00000000      11.21134619        2
Ta       0.00000000       4.48453848       0.00000000        1
Zr       0.00000000       6.72680771       2.24226924        1
Hf       2.24226924       4.48453848       2.24226924        1
Ta       2.24226924       6.72680771       0.00000000        1
N        2.24226924       6.72680771       2.24226924        2
N        2.24226924       4.48453848       0.00000000        2
N        0.00000000       6.72680771       0.00000000        2
N        0.00000000       4.48453848       2.24226924        2
Nb       0.00000000       4.48453848       4.48453848        1
Hf       0.00000000       6.72680771       6.72680771        1
Ti       2.24226924       4.48453848       6.72680771        1
Ta       2.24226924       6.72680771       4.48453848        1
N        2.24226924       6.72680771       6.72680771        2
N        2.24226924       4.48453848       4.48453848        2
N        0.00000000       6.72680771       4.48453848        2
N        0.00000000       4.48453848       6.72680771        2
Hf       0.00000000       4.48453848       8.96907695        1
Ta       0.00000000       6.72680771      11.21134619        1
Zr       2.24226924       4.48453848      11.21134619        1
Ta       2.24226924       6.72680771       8.96907695        1
N        2.24226924       6.72680771      11.21134619        2
N        2.24226924       4.48453848       8.96907695        2
N        0.00000000       6.72680771       8.96907695        2
N        0.00000000       4.48453848      11.21134619        2
Ti       0.00000000       8.96907695       0.00000000        1
Ta       0.00000000      11.21134619       2.24226924        1
Ta       2.24226924       8.96907695       2.24226924        1
Zr       2.24226924      11.21134619       0.00000000        1
N        2.24226924      11.21134619       2.24226924        2
N        2.24226924       8.96907695       0.00000000        2
N        0.00000000      11.21134619       0.00000000        2
N        0.00000000       8.96907695       2.24226924        2
Hf       0.00000000       8.96907695       4.48453848        1
Ta       0.00000000      11.21134619       6.72680771        1
Ti       2.24226924       8.96907695       6.72680771        1
Ti       2.24226924      11.21134619       4.48453848        1
N        2.24226924      11.21134619       6.72680771        2
N        2.24226924       8.96907695       4.48453848        2
N        0.00000000      11.21134619       4.48453848        2
N        0.00000000       8.96907695       6.72680771        2
Nb       0.00000000       8.96907695       8.96907695        1
Nb       0.00000000      11.21134619      11.21134619        1
Nb       2.24226924       8.96907695      11.21134619        1
Zr       2.24226924      11.21134619       8.96907695        1
N        2.24226924      11.21134619      11.21134619        2
N        2.24226924       8.96907695       8.96907695        2
N        0.00000000      11.21134619       8.96907695        2
N        0.00000000       8.96907695      11.21134619        2
Nb       4.48453848       0.00000000       0.00000000        1
Hf       4.48453848       2.24226924       2.24226924        1
Ti       6.72680771       0.00000000       2.24226924        1
Zr       6.72680771       2.24226924       0.00000000        1
N        6.72680771       2.24226924       2.24226924        2
N        6.72680771       0.00000000       0.00000000        2
N        4.48453848       2.24226924       0.00000000        2
N        4.48453848       0.00000000       2.24226924        2
Nb       4.48453848       0.00000000       4.48453848        1
Nb       4.48453848       2.24226924       6.72680771        1
Nb       6.72680771       0.00000000       6.72680771        1
Ta       6.72680771       2.24226924       4.48453848        1
N        6.72680771       2.24226924       6.72680771        2
N        6.72680771       0.00000000       4.48453848        2
N        4.48453848       2.24226924       4.48453848        2
N        4.48453848       0.00000000       6.72680771        2
Zr       4.48453848       0.00000000       8.96907695        1
Ta       4.48453848       2.24226924      11.21134619        1
Ti       6.72680771       0.00000000      11.21134619        1
Hf       6.72680771       2.24226924       8.96907695        1
N        6.72680771       2.24226924      11.21134619        2
N        6.72680771       0.00000000       8.96907695        2
N        4.48453848       2.24226924       8.96907695        2
N        4.48453848       0.00000000      11.21134619        2
Zr       4.48453848       4.48453848       0.00000000        1
Ti       4.48453848       6.72680771       2.24226924        1
Nb       6.72680771       4.48453848       2.24226924        1
Ta       6.72680771       6.72680771       0.00000000        1
N        6.72680771       6.72680771       2.24226924        2
N        6.72680771       4.48453848       0.00000000        2
N        4.48453848       6.72680771       0.00000000        2
N        4.48453848       4.48453848       2.24226924        2
Hf       4.48453848       4.48453848       4.48453848        1
Hf       4.48453848       6.72680771       6.72680771        1
Ti       6.72680771       4.48453848       6.72680771        1
Ti       6.72680771       6.72680771       4.48453848        1
N        6.72680771       6.72680771       6.72680771        2
N        6.72680771       4.48453848       4.48453848        2
N        4.48453848       6.72680771       4.48453848        2
N        4.48453848       4.48453848       6.72680771        2
Nb       4.48453848       4.48453848       8.96907695        1
Ti       4.48453848       6.72680771      11.21134619        1
Ti       6.72680771       4.48453848      11.21134619        1
Zr       6.72680771       6.72680771       8.96907695        1
N        6.72680771       6.72680771      11.21134619        2
N        6.72680771       4.48453848       8.96907695        2
N        4.48453848       6.72680771       8.96907695        2
N        4.48453848       4.48453848      11.21134619        2
Ta       4.48453848       8.96907695       0.00000000        1
Hf       4.48453848      11.21134619       2.24226924        1
Ti       6.72680771       8.96907695       2.24226924        1
Nb       6.72680771      11.21134619       0.00000000        1
N        6.72680771      11.21134619       2.24226924        2
N        6.72680771       8.96907695       0.00000000        2
N        4.48453848      11.21134619       0.00000000        2
N        4.48453848       8.96907695       2.24226924        2
Nb       4.48453848       8.96907695       4.48453848        1
Zr       4.48453848      11.21134619       6.72680771        1
Zr       6.72680771       8.96907695       6.72680771        1
Hf       6.72680771      11.21134619       4.48453848        1
N        6.72680771      11.21134619       6.72680771        2
N        6.72680771       8.96907695       4.48453848        2
N        4.48453848      11.21134619       4.48453848        2
N        4.48453848       8.96907695       6.72680771        2
Ti       4.48453848       8.96907695       8.96907695        1
Hf       4.48453848      11.21134619      11.21134619        1
Nb       6.72680771       8.96907695      11.21134619        1
Nb       6.72680771      11.21134619       8.96907695        1
N        6.72680771      11.21134619      11.21134619        2
N        6.72680771       8.96907695       8.96907695        2
N        4.48453848      11.21134619       8.96907695        2
N        4.48453848       8.96907695      11.21134619        2
Ti       8.96907695       0.00000000       0.00000000        1
Ti       8.96907695       2.24226924       2.24226924        1
Hf      11.21134619       0.00000000       2.24226924        1
Ta      11.21134619       2.24226924       0.00000000        1
N       11.21134619       2.24226924       2.24226924        2
N       11.21134619       0.00000000       0.00000000        2
N        8.96907695       2.24226924       0.00000000        2
N        8.96907695       0.00000000       2.24226924        2
Zr       8.96907695       0.00000000       4.48453848        1
Ta       8.96907695       2.24226924       6.72680771        1
Ti      11.21134619       0.00000000       6.72680771        1
Hf      11.21134619       2.24226924       4.48453848        1
N       11.21134619       2.24226924       6.72680771        2
N       11.21134619       0.00000000       4.48453848        2
N        8.96907695       2.24226924       4.48453848        2
N        8.96907695       0.00000000       6.72680771        2
Ta       8.96907695       0.00000000       8.96907695        1
Nb       8.96907695       2.24226924      11.21134619        1
Hf      11.21134619       0.00000000      11.21134619        1
Ta      11.21134619       2.24226924       8.96907695        1
N       11.21134619       2.24226924      11.21134619        2
N       11.21134619       0.00000000       8.96907695        2
N        8.96907695       2.24226924       8.96907695        2
N        8.96907695       0.00000000      11.21134619        2
Hf       8.96907695       4.48453848       0.00000000        1
Zr       8.96907695       6.72680771       2.24226924        1
Ti      11.21134619       4.48453848       2.24226924        1
Zr      11.21134619       6.72680771       0.00000000        1
N       11.21134619       6.72680771       2.24226924        2
N       11.21134619       4.48453848       0.00000000        2
N        8.96907695       6.72680771       0.00000000        2
N        8.96907695       4.48453848       2.24226924        2
Zr       8.96907695       4.48453848       4.48453848        1
Nb       8.96907695       6.72680771       6.72680771        1
Zr      11.21134619       4.48453848       6.72680771        1
Nb      11.21134619       6.72680771       4.48453848        1
N       11.21134619       6.72680771       6.72680771        2
N       11.21134619       4.48453848       4.48453848        2
N        8.96907695       6.72680771       4.48453848        2
N        8.96907695       4.48453848       6.72680771        2
Ti       8.96907695       4.48453848       8.96907695        1
Zr       8.96907695       6.72680771      11.21134619        1
Zr      11.21134619       4.48453848      11.21134619        1
Zr      11.21134619       6.72680771       8.96907695        1
N       11.21134619       6.72680771      11.21134619        2
N       11.21134619       4.48453848       8.96907695        2
N        8.96907695       6.72680771       8.96907695        2
N        8.96907695       4.48453848      11.21134619        2
Ta       8.96907695       8.96907695       0.00000000        1
Ta       8.96907695      11.21134619       2.24226924        1
Ti      11.21134619       8.96907695       2.24226924        1
Zr      11.21134619      11.21134619       0.00000000        1
N       11.21134619      11.21134619       2.24226924        2
N       11.21134619       8.96907695       0.00000000        2
N        8.96907695      11.21134619       0.00000000        2
N        8.96907695       8.96907695       2.24226924        2
Hf       8.96907695       8.96907695       4.48453848        1
Hf       8.96907695      11.21134619       6.72680771        1
Hf      11.21134619       8.96907695       6.72680771        1
Nb      11.21134619      11.21134619       4.48453848        1
N       11.21134619      11.21134619       6.72680771        2
N       11.21134619       8.96907695       4.48453848        2
N        8.96907695      11.21134619       4.48453848        2
N        8.96907695       8.96907695       6.72680771        2
Nb       8.96907695       8.96907695       8.96907695        1
Hf       8.96907695      11.21134619      11.21134619        1
Nb      11.21134619       8.96907695      11.21134619        1
Zr      11.21134619      11.21134619       8.96907695        1
N       11.21134619      11.21134619      11.21134619        2
N       11.21134619       8.96907695       8.96907695        2
N        8.96907695      11.21134619       8.96907695        2
N        8.96907695       8.96907695      11.21134619        2
216
Lattice="13.453615425789224 0.0 0.0 0.0 13.453615425789224 0.0 0.0 0.0 13.453615425789224" Properties=species:S:1:pos:R:3:tags:I:1 sqs_abs_alpha=0.12292460785967281 energy=-2238.1081120520976 mc_step=150 energy_method=uma rosenbluth_W_new=3.3521226246006974 rosenbluth_W_old=5.892530786825704 pbc="T T T"
Zr       0.00000000       0.00000000       0.00000000        1
Ti       0.00000000       2.24226924       2.24226924        1
Nb       2.24226924       0.00000000       2.24226924        1
Hf       2.24226924       2.24226924       0.00000000        1
N        2.24226924       2.24226924       2.24226924        2
N        2.24226924       0.00000000       0.00000000        2
N        0.00000000       2.24226924       0.00000000        2
N        0.00000000       0.00000000       2.24226924        2
Hf       0.00000000       0.00000000       4.48453848        1
Ta       0.00000000       2.24226924       6.72680771        1
Nb       2.24226924       0.00000000       6.72680771        1
Ti       2.24226924       2.24226924       4.48453848        1
N        2.24226924       2.24226924       6.72680771        2
N        2.24226924       0.00000000       4.48453848        2
N        0.00000000       2.24226924       4.48453848        2
N        0.00000000       0.00000000       6.72680771        2
Hf       0.00000000       0.00000000       8.96907695        1
Zr       0.00000000       2.24226924      11.21134619        1
Ta       2.24226924       0.00000000      11.21134619        1
Nb       2.24226924       2.24226924       8.96907695        1
N        2.24226924       2.24226924      11.21134619        2
N        2.24226924       0.00000000       8.96907695        2
N        0.00000000       2.24226924       8.96907695        2
N        0.00000000       0.00000000      11.21134619        2
Ta       0.00000000       4.48453848       0.00000000        1
Zr       0.00000000       6.72680771       2.24226924        1
Nb       2.24226924       4.48453848       2.24226924        1
Ta       2.24226924       6.72680771       0.00000000        1
N        2.24226924       6.72680771       2.24226924        2
N        2.24226924       4.48453848       0.00000000        2
N        0.00000000       6.72680771       0.00000000        2
N        0.00000000       4.48453848       2.24226924        2
Nb       0.00000000       4.48453848       4.48453848        1
Hf       0.00000000       6.72680771       6.72680771        1
Nb       2.24226924       4.48453848       6.72680771        1
Ti       2.24226924       6.72680771       4.48453848        1
N        2.24226924       6.72680771       6.72680771        2
N        2.24226924       4.48453848       4.48453848        2
N        0.00000000       6.72680771       4.48453848        2
N        0.00000000       4.48453848       6.72680771        2
Hf       0.00000000       4.48453848       8.96907695        1
Zr       0.00000000       6.72680771      11.21134619        1
Zr       2.24226924       4.48453848      11.21134619        1
Ta       2.24226924       6.72680771       8.96907695        1
N        2.24226924       6.72680771      11.21134619        2
N        2.24226924       4.48453848       8.96907695        2
N        0.00000000       6.72680771       8.96907695        2
N        0.00000000       4.48453848      11.21134619        2
Ti       0.00000000       8.96907695       0.00000000        1
Ta       0.00000000      11.21134619       2.24226924        1
Ta       2.24226924       8.96907695       2.24226924        1
Zr       2.24226924      11.21134619       0.00000000        1
N        2.24226924      11.21134619       2.24226924        2
N        2.24226924       8.96907695       0.00000000        2
N        0.00000000      11.21134619       0.00000000        2
N        0.00000000       8.96907695       2.24226924        2
Hf       0.00000000       8.96907695       4.48453848        1
Hf       0.00000000      11.21134619       6.72680771        1
Ti       2.24226924       8.96907695       6.72680771        1
Ti       2.24226924      11.21134619       4.48453848        1
N        2.24226924      11.21134619       6.72680771        2
N        2.24226924       8.96907695       4.48453848        2
N        0.00000000      11.21134619       4.48453848        2
N        0.00000000       8.96907695       6.72680771        2
Nb       0.00000000       8.96907695       8.96907695        1
Zr       0.00000000      11.21134619      11.21134619        1
Ta       2.24226924       8.96907695      11.21134619        1
Zr       2.24226924      11.21134619       8.96907695        1
N        2.24226924      11.21134619      11.21134619        2
N        2.24226924       8.96907695       8.96907695        2
N        0.00000000      11.21134619       8.96907695        2
N        0.00000000       8.96907695      11.21134619        2
Nb       4.48453848       0.00000000       0.00000000        1
Zr       4.48453848       2.24226924       2.24226924        1
Ta       6.72680771       0.00000000       2.24226924        1
Ta       6.72680771       2.24226924       0.00000000        1
N        6.72680771       2.24226924       2.24226924        2
N        6.72680771       0.00000000       0.00000000        2
N        4.48453848       2.24226924       0.00000000        2
N        4.48453848       0.00000000       2.24226924        2
Hf       4.48453848       0.00000000       4.48453848        1
Ta       4.48453848       2.24226924       6.72680771        1
Ta       6.72680771       0.00000000       6.72680771        1
Ti       6.72680771       2.24226924       4.48453848        1
N        6.72680771       2.24226924       6.72680771        2
N        6.72680771       0.00000000       4.48453848        2
N        4.48453848       2.24226924       4.48453848        2
N        4.48453848       0.00000000       6.72680771        2
Zr       4.48453848       0.00000000       8.96907695        1
Ti       4.48453848       2.24226924      11.21134619        1
Ti       6.72680771       0.00000000      11.21134619        1
Hf       6.72680771       2.24226924       8.96907695        1
N        6.72680771       2.24226924      11.21134619        2
N        6.72680771       0.00000000       8.96907695        2
N        4.48453848       2.24226924       8.96907695        2
N        4.48453848       0.00000000      11.21134619        2
Zr       4.48453848       4.48453848       0.00000000        1
Ti       4.48453848       6.72680771       2.24226924        1
Nb       6.72680771       4.48453848       2.24226924        1
Hf       6.72680771       6.72680771       0.00000000        1
N        6.72680771       6.72680771       2.24226924        2
N        6.72680771       4.48453848       0.00000000        2
N        4.48453848       6.72680771       0.00000000        2
N        4.48453848       4.48453848       2.24226924        2
Hf       4.48453848       4.48453848       4.48453848        1
Hf       4.48453848       6.72680771       6.72680771        1
Nb       6.72680771       4.48453848       6.72680771        1
Ti       6.72680771       6.72680771       4.48453848        1
N        6.72680771       6.72680771       6.72680771        2
N        6.72680771       4.48453848       4.48453848        2
N        4.48453848       6.72680771       4.48453848        2
N        4.48453848       4.48453848       6.72680771        2
Ta       4.48453848       4.48453848       8.96907695        1
Ti       4.48453848       6.72680771      11.21134619        1
Zr       6.72680771       4.48453848      11.21134619        1
Nb       6.72680771       6.72680771       8.96907695        1
N        6.72680771       6.72680771      11.21134619        2
N        6.72680771       4.48453848       8.96907695        2
N        4.48453848       6.72680771       8.96907695        2
N        4.48453848       4.48453848      11.21134619        2
Ta       4.48453848       8.96907695       0.00000000        1
Zr       4.48453848      11.21134619       2.24226924        1
Ti       6.72680771       8.96907695       2.24226924        1
Nb       6.72680771      11.21134619       0.00000000        1
N        6.72680771      11.21134619       2.24226924        2
N        6.72680771       8.96907695       0.00000000        2
N        4.48453848      11.21134619       0.00000000        2
N        4.48453848       8.96907695       2.24226924        2
Nb       4.48453848       8.96907695       4.48453848        1
Zr       4.48453848      11.21134619       6.72680771        1
Hf       6.72680771       8.96907695       6.72680771        1
Hf       6.72680771      11.21134619       4.48453848        1
N        6.72680771      11.21134619       6.72680771        2
N        6.72680771       8.96907695       4.48453848        2
N        4.48453848      11.21134619       4.48453848        2
N        4.48453848       8.96907695       6.72680771        2
Ti       4.48453848       8.96907695       8.96907695        1
Zr       4.48453848      11.21134619      11.21134619        1
Ti       6.72680771       8.96907695      11.21134619        1
Nb       6.72680771      11.21134619       8.96907695        1
N        6.72680771      11.21134619      11.21134619        2
N        6.72680771       8.96907695       8.96907695        2
N        4.48453848      11.21134619       8.96907695        2
N        4.48453848       8.96907695      11.21134619        2
Zr       8.96907695       0.00000000       0.00000000        1
Hf       8.96907695       2.24226924       2.24226924        1
Hf      11.21134619       0.00000000       2.24226924        1
Nb      11.21134619       2.24226924       0.00000000        1
N       11.21134619       2.24226924       2.24226924        2
N       11.21134619       0.00000000       0.00000000        2
N        8.96907695       2.24226924       0.00000000        2
N        8.96907695       0.00000000       2.24226924        2
Ti       8.96907695       0.00000000       4.48453848        1
Hf       8.96907695       2.24226924       6.72680771        1
Ti      11.21134619       0.00000000       6.72680771        1
Nb      11.21134619       2.24226924       4.48453848        1
N       11.21134619       2.24226924       6.72680771        2
N       11.21134619       0.00000000       4.48453848        2
N        8.96907695       2.24226924       4.48453848        2
N        8.96907695       0.00000000       6.72680771        2
Ta       8.96907695       0.00000000       8.96907695        1
Ta       8.96907695       2.24226924      11.21134619        1
Ta      11.21134619       0.00000000      11.21134619        1
Ta      11.21134619       2.24226924       8.96907695        1
N       11.21134619       2.24226924      11.21134619        2
N       11.21134619       0.00000000       8.96907695        2
N        8.96907695       2.24226924       8.96907695        2
N        8.96907695       0.00000000      11.21134619        2
Ti       8.96907695       4.48453848       0.00000000        1
Zr       8.96907695       6.72680771       2.24226924        1
Ta      11.21134619       4.48453848       2.24226924        1
Zr      11.21134619       6.72680771       0.00000000        1
N       11.21134619       6.72680771       2.24226924        2
N       11.21134619       4.48453848       0.00000000        2
N        8.96907695       6.72680771       0.00000000        2
N        8.96907695       4.48453848       2.24226924        2
Zr       8.96907695       4.48453848       4.48453848        1
Nb       8.96907695       6.72680771       6.72680771        1
Zr      11.21134619       4.48453848       6.72680771        1
Hf      11.21134619       6.72680771       4.48453848        1
N       11.21134619       6.72680771       6.72680771        2
N       11.21134619       4.48453848       4.48453848        2
N        8.96907695       6.72680771       4.48453848        2
N        8.96907695       4.48453848       6.72680771        2
Nb       8.96907695       4.48453848       8.96907695        1
Nb       8.96907695       6.72680771      11.21134619        1
Hf      11.21134619       4.48453848      11.21134619        1
Nb      11.21134619       6.72680771       8.96907695        1
N       11.21134619       6.72680771      11.21134619        2
N       11.21134619       4.48453848       8.96907695        2
N        8.96907695       6.72680771       8.96907695        2
N        8.96907695       4.48453848      11.21134619        2
Ta       8.96907695       8.96907695       0.00000000        1
Ti       8.96907695      11.21134619       2.24226924        1
Zr      11.21134619       8.96907695       2.24226924        1
Hf      11.21134619      11.21134619       0.00000000        1
N       11.21134619      11.21134619       2.24226924        2
N       11.21134619       8.96907695       0.00000000        2
N        8.96907695      11.21134619       0.00000000        2
N        8.96907695       8.96907695       2.24226924        2
Ti       8.96907695       8.96907695       4.48453848        1
Hf       8.96907695      11.21134619       6.72680771        1
Ta      11.21134619       8.96907695       6.72680771        1
Nb      11.21134619      11.21134619       4.48453848        1
N       11.21134619      11.21134619       6.72680771        2
N       11.21134619       8.96907695       4.48453848        2
N        8.96907695      11.21134619       4.48453848        2
N        8.96907695       8.96907695       6.72680771        2
Ti       8.96907695       8.96907695       8.96907695        1
Hf       8.96907695      11.21134619      11.21134619        1
Ti      11.21134619       8.96907695      11.21134619        1
Zr      11.21134619      11.21134619       8.96907695        1
N       11.21134619      11.21134619      11.21134619        2
N       11.21134619       8.96907695       8.96907695        2
N        8.96907695      11.21134619       8.96907695        2
N        8.96907695       8.96907695      11.21134619        2
216
Lattice="13.453615425789224 0.0 0.0 0.0 13.453615425789224 0.0 0.0 0.0 13.453615425789224" Properties=species:S:1:pos:R:3:tags:I:1 sqs_abs_alpha=0.1230089391128352 energy=-2238.3352824694757 mc_step=200 energy_method=uma rosenbluth_W_new=4.938944056990632 rosenbluth_W_old=3.593795663245004 pbc="T T T"
Zr       0.00000000       0.00000000       0.00000000        1
Ta       0.00000000       2.24226924       2.24226924        1
Ta       2.24226924       0.00000000       2.24226924        1
Ti       2.24226924       2.24226924       0.00000000        1
N        2.24226924       2.24226924       2.24226924        2
N        2.24226924       0.00000000       0.00000000        2
N        0.00000000       2.24226924       0.00000000        2
N        0.00000000       0.00000000       2.24226924        2
Zr       0.00000000       0.00000000       4.48453848        1
Ta       0.00000000       2.24226924       6.72680771        1
Nb       2.24226924       0.00000000       6.72680771        1
Ti       2.24226924       2.24226924       4.48453848        1
N        2.24226924       2.24226924       6.72680771        2
N        2.24226924       0.00000000       4.48453848        2
N        0.00000000       2.24226924       4.48453848        2
N        0.00000000       0.00000000       6.72680771        2
Ta       0.00000000       0.00000000       8.96907695        1
Ti       0.00000000       2.24226924      11.21134619        1
Ta       2.24226924       0.00000000      11.21134619        1
Nb       2.24226924       2.24226924       8.96907695        1
N        2.24226924       2.24226924      11.21134619        2
N        2.24226924       0.00000000       8.96907695        2
N        0.00000000       2.24226924       8.96907695        2
N        0.00000000       0.00000000      11.21134619        2
Ti       0.00000000       4.48453848       0.00000000        1
Zr       0.00000000       6.72680771       2.24226924        1
Hf       2.24226924       4.48453848       2.24226924        1
Nb       2.24226924       6.72680771       0.00000000        1
N        2.24226924       6.72680771       2.24226924        2
N        2.24226924       4.48453848       0.00000000        2
N        0.00000000       6.72680771       0.00000000        2
N        0.00000000       4.48453848       2.24226924        2
Ta       0.00000000       4.48453848       4.48453848        1
Hf       0.00000000       6.72680771       6.72680771        1
Nb       2.24226924       4.48453848       6.72680771        1
Nb       2.24226924       6.72680771       4.48453848        1
N        2.24226924       6.72680771       6.72680771        2
N        2.24226924       4.48453848       4.48453848        2
N        0.00000000       6.72680771       4.48453848        2
N        0.00000000       4.48453848       6.72680771        2
Zr       0.00000000       4.48453848       8.96907695        1
Ta       0.00000000       6.72680771      11.21134619        1
Zr       2.24226924       4.48453848      11.21134619        1
Ti       2.24226924       6.72680771       8.96907695        1
N        2.24226924       6.72680771      11.21134619        2
N        2.24226924       4.48453848       8.96907695        2
N        0.00000000       6.72680771       8.96907695        2
N        0.00000000       4.48453848      11.21134619        2
Nb       0.00000000       8.96907695       0.00000000        1
Nb       0.00000000      11.21134619       2.24226924        1
Ta       2.24226924       8.96907695       2.24226924        1
Zr       2.24226924      11.21134619       0.00000000        1
N        2.24226924      11.21134619       2.24226924        2
N        2.24226924       8.96907695       0.00000000        2
N        0.00000000      11.21134619       0.00000000        2
N        0.00000000       8.96907695       2.24226924        2
Zr       0.00000000       8.96907695       4.48453848        1
Ti       0.00000000      11.21134619       6.72680771        1
Nb       2.24226924       8.96907695       6.72680771        1
Hf       2.24226924      11.21134619       4.48453848        1
N        2.24226924      11.21134619       6.72680771        2
N        2.24226924       8.96907695       4.48453848        2
N        0.00000000      11.21134619       4.48453848        2
N        0.00000000       8.96907695       6.72680771        2
Hf       0.00000000       8.96907695       8.96907695        1
Ta       0.00000000      11.21134619      11.21134619        1
Zr       2.24226924       8.96907695      11.21134619        1
Ti       2.24226924      11.21134619       8.96907695        1
N        2.24226924      11.21134619      11.21134619        2
N        2.24226924       8.96907695       8.96907695        2
N        0.00000000      11.21134619       8.96907695        2
N        0.00000000       8.96907695      11.21134619        2
Hf       4.48453848       0.00000000       0.00000000        1
Hf       4.48453848       2.24226924       2.24226924        1
Ta       6.72680771       0.00000000       2.24226924        1
Ta       6.72680771       2.24226924       0.00000000        1
N        6.72680771       2.24226924       2.24226924        2
N        6.72680771       0.00000000       0.00000000        2
N        4.48453848       2.24226924       0.00000000        2
N        4.48453848       0.00000000       2.24226924        2
Nb       4.48453848       0.00000000       4.48453848        1
Ta       4.48453848       2.24226924       6.72680771        1
Nb       6.72680771       0.00000000       6.72680771        1
Hf       6.72680771       2.24226924       4.48453848        1
N        6.72680771       2.24226924       6.72680771        2
N        6.72680771       0.00000000       4.48453848        2
N        4.48453848       2.24226924       4.48453848        2
N        4.48453848       0.00000000       6.72680771        2
Zr       4.48453848       0.00000000       8.96907695        1
Ti       4.48453848       2.24226924      11.21134619        1
Ti       6.72680771       0.00000000      11.21134619        1
Zr       6.72680771       2.24226924       8.96907695        1
N        6.72680771       2.24226924      11.21134619        2
N        6.72680771       0.00000000       8.96907695        2
N        4.48453848       2.24226924       8.96907695        2
N        4.48453848       0.00000000      11.21134619        2
Nb       4.48453848       4.48453848       0.00000000        1
Ti       4.48453848       6.72680771       2.24226924        1
Nb       6.72680771       4.48453848       2.24226924        1
Ta       6.72680771       6.72680771       0.00000000        1
N        6.72680771       6.72680771       2.24226924        2
N        6.72680771       4.48453848       0.00000000        2
N        4.48453848       6.72680771       0.00000000        2
N        4.48453848       4.48453848       2.24226924        2
Ta       4.48453848       4.48453848       4.48453848        1
Hf       4.48453848       6.72680771       6.72680771        1
Nb       6.72680771       4.48453848       6.72680771        1
Hf       6.72680771       6.72680771       4.48453848        1
N        6.72680771       6.72680771       6.72680771        2
N        6.72680771       4.48453848       4.48453848        2
N        4.48453848       6.72680771       4.48453848        2
N        4.48453848       4.48453848       6.72680771        2
Ta       4.48453848       4.48453848       8.96907695        1
Ti       4.48453848       6.72680771      11.21134619        1
Zr       6.72680771       4.48453848      11.21134619        1
Hf       6.72680771       6.72680771       8.96907695        1
N        6.72680771       6.72680771      11.21134619        2
N        6.72680771       4.48453848       8.96907695        2
N        4.48453848       6.72680771       8.96907695        2
N        4.48453848       4.48453848      11.21134619        2
Hf       4.48453848       8.96907695       0.00000000        1
Zr       4.48453848      11.21134619       2.24226924        1
Ti       6.72680771       8.96907695       2.24226924        1
Nb       6.72680771      11.21134619       0.00000000        1
N        6.72680771      11.21134619       2.24226924        2
N        6.72680771       8.96907695       0.00000000        2
N        4.48453848      11.21134619       0.00000000        2
N        4.48453848       8.96907695       2.24226924        2
Zr       4.48453848       8.96907695       4.48453848        1
Ti       4.48453848      11.21134619       6.72680771        1
Hf       6.72680771       8.96907695       6.72680771        1
Hf       6.72680771      11.21134619       4.48453848        1
N        6.72680771      11.21134619       6.72680771        2
N        6.72680771       8.96907695       4.48453848        2
N        4.48453848      11.21134619       4.48453848        2
N        4.48453848       8.96907695       6.72680771        2
Zr       4.48453848       8.96907695       8.96907695        1
Zr       4.48453848      11.21134619      11.21134619        1
Ti       6.72680771       8.96907695      11.21134619        1
Zr       6.72680771      11.21134619       8.96907695        1
N        6.72680771      11.21134619      11.21134619        2
N        6.72680771       8.96907695       8.96907695        2
N        4.48453848      11.21134619       8.96907695        2
N        4.48453848       8.96907695      11.21134619        2
Ti       8.96907695       0.00000000       0.00000000        1
Hf       8.96907695       2.24226924       2.24226924        1
Hf      11.21134619       0.00000000       2.24226924        1
Nb      11.21134619       2.24226924       0.00000000        1
N       11.21134619       2.24226924       2.24226924        2
N       11.21134619       0.00000000       0.00000000        2
N        8.96907695       2.24226924       0.00000000        2
N        8.96907695       0.00000000       2.24226924        2
Ti       8.96907695       0.00000000       4.48453848        1
Ti       8.96907695       2.24226924       6.72680771        1
Zr      11.21134619       0.00000000       6.72680771        1
Hf      11.21134619       2.24226924       4.48453848        1
N       11.21134619       2.24226924       6.72680771        2
N       11.21134619       0.00000000       4.48453848        2
N        8.96907695       2.24226924       4.48453848        2
N        8.96907695       0.00000000       6.72680771        2
Ta       8.96907695       0.00000000       8.96907695        1
Hf       8.96907695       2.24226924      11.21134619        1
Zr      11.21134619       0.00000000      11.21134619        1
Ti      11.21134619       2.24226924       8.96907695        1
N       11.21134619       2.24226924      11.21134619        2
N       11.21134619       0.00000000       8.96907695        2
N        8.96907695       2.24226924       8.96907695        2
N        8.96907695       0.00000000      11.21134619        2
Ti       8.96907695       4.48453848       0.00000000        1
Zr       8.96907695       6.72680771       2.24226924        1
Nb      11.21134619       4.48453848       2.24226924        1
Zr      11.21134619       6.72680771       0.00000000        1
N       11.21134619       6.72680771       2.24226924        2
N       11.21134619       4.48453848       0.00000000        2
N        8.96907695       6.72680771       0.00000000        2
N        8.96907695       4.48453848       2.24226924        2
Zr       8.96907695       4.48453848       4.48453848        1
Ti       8.96907695       6.72680771       6.72680771        1
Hf      11.21134619       4.48453848       6.72680771        1
Ti      11.21134619       6.72680771       4.48453848        1
N       11.21134619       6.72680771       6.72680771        2
N       11.21134619       4.48453848       4.48453848        2
N        8.96907695       6.72680771       4.48453848        2
N        8.96907695       4.48453848       6.72680771        2
Nb       8.96907695       4.48453848       8.96907695        1
Ta       8.96907695       6.72680771      11.21134619        1
Ta      11.21134619       4.48453848      11.21134619        1
Nb      11.21134619       6.72680771       8.96907695        1
N       11.21134619       6.72680771      11.21134619        2
N       11.21134619       4.48453848       8.96907695        2
N        8.96907695       6.72680771       8.96907695        2
N        8.96907695       4.48453848      11.21134619        2
Ta       8.96907695       8.96907695       0.00000000        1
Nb       8.96907695      11.21134619       2.24226924        1
Zr      11.21134619       8.96907695       2.24226924        1
Ti      11.21134619      11.21134619       0.00000000        1
N       11.21134619      11.21134619       2.24226924        2
N       11.21134619       8.96907695       0.00000000        2
N        8.96907695      11.21134619       0.00000000        2
N        8.96907695       8.96907695       2.24226924        2
Hf       8.96907695       8.96907695       4.48453848        1
Hf       8.96907695      11.21134619       6.72680771        1
Ta      11.21134619       8.96907695       6.72680771        1
Nb      11.21134619      11.21134619       4.48453848        1
N       11.21134619      11.21134619       6.72680771        2
N       11.21134619       8.96907695       4.48453848        2
N        8.96907695      11.21134619       4.48453848        2
N        8.96907695       8.96907695       6.72680771        2
Ta       8.96907695       8.96907695       8.96907695        1
Hf       8.96907695      11.21134619      11.21134619        1
Hf      11.21134619       8.96907695      11.21134619        1
Nb      11.21134619      11.21134619       8.96907695        1
N       11.21134619      11.21134619      11.21134619        2
N       11.21134619       8.96907695       8.96907695        2
N        8.96907695      11.21134619       8.96907695        2
N        8.96907695       8.96907695      11.21134619        2
216
Lattice="13.453615425789224 0.0 0.0 0.0 13.453615425789224 0.0 0.0 0.0 13.453615425789224" Properties=species:S:1:pos:R:3:tags:I:1 sqs_abs_alpha=0.09449148254343061 energy=-2238.1797636613383 mc_step=250 energy_method=uma rosenbluth_W_new=3.8367277979745453 rosenbluth_W_old=4.371649204651446 pbc="T T T"
Nb       0.00000000       0.00000000       0.00000000        1
Ti       0.00000000       2.24226924       2.24226924        1
Ta       2.24226924       0.00000000       2.24226924        1
Ti       2.24226924       2.24226924       0.00000000        1
N        2.24226924       2.24226924       2.24226924        2
N        2.24226924       0.00000000       0.00000000        2
N        0.00000000       2.24226924       0.00000000        2
N        0.00000000       0.00000000       2.24226924        2
Zr       0.00000000       0.00000000       4.48453848        1
Nb       0.00000000       2.24226924       6.72680771        1
Zr       2.24226924       0.00000000       6.72680771        1
Ti       2.24226924       2.24226924       4.48453848        1
N        2.24226924       2.24226924       6.72680771        2
N        2.24226924       0.00000000       4.48453848        2
N        0.00000000       2.24226924       4.48453848        2
N        0.00000000       0.00000000       6.72680771        2
Hf       0.00000000       0.00000000       8.96907695        1
Hf       0.00000000       2.24226924      11.21134619        1
Ta       2.24226924       0.00000000      11.21134619        1
Ti       2.24226924       2.24226924       8.96907695        1
N        2.24226924       2.24226924      11.21134619        2
N        2.24226924       0.00000000       8.96907695        2
N        0.00000000       2.24226924       8.96907695        2
N        0.00000000       0.00000000      11.21134619        2
Ti       0.00000000       4.48453848       0.00000000        1
Zr       0.00000000       6.72680771       2.24226924        1
Hf       2.24226924       4.48453848       2.24226924        1
Zr       2.24226924       6.72680771       0.00000000        1
N        2.24226924       6.72680771       2.24226924        2
N        2.24226924       4.48453848       0.00000000        2
N        0.00000000       6.72680771       0.00000000        2
N        0.00000000       4.48453848       2.24226924        2
Nb       0.00000000       4.48453848       4.48453848        1
Ta       0.00000000       6.72680771       6.72680771        1
Nb       2.24226924       4.48453848       6.72680771        1
Nb       2.24226924       6.72680771       4.48453848        1
N        2.24226924       6.72680771       6.72680771        2
N        2.24226924       4.48453848       4.48453848        2
N        0.00000000       6.72680771       4.48453848        2
N        0.00000000       4.48453848       6.72680771        2
Ti       0.00000000       4.48453848       8.96907695        1
Hf       0.00000000       6.72680771      11.21134619        1
Hf       2.24226924       4.48453848      11.21134619        1
Ti       2.24226924       6.72680771       8.96907695        1
N        2.24226924       6.72680771      11.21134619        2
N        2.24226924       4.48453848       8.96907695        2
N        0.00000000       6.72680771       8.96907695        2
N        0.00000000       4.48453848      11.21134619        2
Ti       0.00000000       8.96907695       0.00000000        1
Nb       0.00000000      11.21134619       2.24226924        1
Ta       2.24226924       8.96907695       2.24226924        1
Zr       2.24226924      11.21134619       0.00000000        1
N        2.24226924      11.21134619       2.24226924        2
N        2.24226924       8.96907695       0.00000000        2
N        0.00000000      11.21134619       0.00000000        2
N        0.00000000       8.96907695       2.24226924        2
Zr       0.00000000       8.96907695       4.48453848        1
Ta       0.00000000      11.21134619       6.72680771        1
Nb       2.24226924       8.96907695       6.72680771        1
Zr       2.24226924      11.21134619       4.48453848        1
N        2.24226924      11.21134619       6.72680771        2
N        2.24226924       8.96907695       4.48453848        2
N        0.00000000      11.21134619       4.48453848        2
N        0.00000000       8.96907695       6.72680771        2
Hf       0.00000000       8.96907695       8.96907695        1
Hf       0.00000000      11.21134619      11.21134619        1
Zr       2.24226924       8.96907695      11.21134619        1
Ti       2.24226924      11.21134619       8.96907695        1
N        2.24226924      11.21134619      11.21134619        2
N        2.24226924       8.96907695       8.96907695        2
N        0.00000000      11.21134619       8.96907695        2
N        0.00000000       8.96907695      11.21134619        2
Nb       4.48453848       0.00000000       0.00000000        1
Nb       4.48453848       2.24226924       2.24226924        1
Ta       6.72680771       0.00000000       2.24226924        1
Ta       6.72680771       2.24226924       0.00000000        1
N        6.72680771       2.24226924       2.24226924        2
N        6.72680771       0.00000000       0.00000000        2
N        4.48453848       2.24226924       0.00000000        2
N        4.48453848       0.00000000       2.24226924        2
Nb       4.48453848       0.00000000       4.48453848        1
Ta       4.48453848       2.24226924       6.72680771        1
Ti       6.72680771       0.00000000       6.72680771        1
Nb       6.72680771       2.24226924       4.48453848        1
N        6.72680771       2.24226924       6.72680771        2
N        6.72680771       0.00000000       4.48453848        2
N        4.48453848       2.24226924       4.48453848        2
N        4.48453848       0.00000000       6.72680771        2
Zr       4.48453848       0.00000000       8.96907695        1
Zr       4.48453848       2.24226924      11.21134619        1
Ti       6.72680771       0.00000000      11.21134619        1
Zr       6.72680771       2.24226924       8.96907695        1
N        6.72680771       2.24226924      11.21134619        2
N        6.72680771       0.00000000       8.96907695        2
N        4.48453848       2.24226924       8.96907695        2
N        4.48453848       0.00000000      11.21134619        2
Ta       4.48453848       4.48453848       0.00000000        1
Ti       4.48453848       6.72680771       2.24226924        1
Nb       6.72680771       4.48453848       2.24226924        1
Ta       6.72680771       6.72680771       0.00000000        1
N        6.72680771       6.72680771       2.24226924        2
N        6.72680771       4.48453848       0.00000000        2
N        4.48453848       6.72680771       0.00000000        2
N        4.48453848       4.48453848       2.24226924        2
Hf       4.48453848       4.48453848       4.48453848        1
Hf       4.48453848       6.72680771       6.72680771        1
Hf       6.72680771       4.48453848       6.72680771        1
Hf       6.72680771       6.72680771       4.48453848        1
N        6.72680771       6.72680771       6.72680771        2
N        6.72680771       4.48453848       4.48453848        2
N        4.48453848       6.72680771       4.48453848        2
N        4.48453848       4.48453848       6.72680771        2
Ta       4.48453848       4.48453848       8.96907695        1
Ta       4.48453848       6.72680771      11.21134619        1
Zr       6.72680771       4.48453848      11.21134619        1
Zr       6.72680771       6.72680771       8.96907695        1
N        6.72680771       6.72680771      11.21134619        2
N        6.72680771       4.48453848       8.96907695        2
N        4.48453848       6.72680771       8.96907695        2
N        4.48453848       4.48453848      11.21134619        2
Ti       4.48453848       8.96907695       0.00000000        1
Ta       4.48453848      11.21134619       2.24226924        1
Ti       6.72680771       8.96907695       2.24226924        1
Nb       6.72680771      11.21134619       0.00000000        1
N        6.72680771      11.21134619       2.24226924        2
N        6.72680771       8.96907695       0.00000000        2
N        4.48453848      11.21134619       0.00000000        2
N        4.48453848       8.96907695       2.24226924        2
Zr       4.48453848       8.96907695       4.48453848        1
Ti       4.48453848      11.21134619       6.72680771        1
Zr       6.72680771       8.96907695       6.72680771        1
Hf       6.72680771      11.21134619       4.48453848        1
N        6.72680771      11.21134619       6.72680771        2
N        6.72680771       8.96907695       4.48453848        2
N        4.48453848      11.21134619       4.48453848        2
N        4.48453848       8.96907695       6.72680771        2
Ta       4.48453848       8.96907695       8.96907695        1
Zr       4.48453848      11.21134619      11.21134619        1
Ti       6.72680771       8.96907695      11.21134619        1
Hf       6.72680771      11.21134619       8.96907695        1
N        6.72680771      11.21134619      11.21134619        2
N        6.72680771       8.96907695       8.96907695        2
N        4.48453848      11.21134619       8.96907695        2
N        4.48453848       8.96907695      11.21134619        2
Zr       8.96907695       0.00000000       0.00000000        1
Hf       8.96907695       2.24226924       2.24226924        1
Hf      11.21134619       0.00000000       2.24226924        1
Hf      11.21134619       2.24226924       0.00000000        1
N       11.21134619       2.24226924       2.24226924        2
N       11.21134619       0.00000000       0.00000000        2
N        8.96907695       2.24226924       0.00000000        2
N        8.96907695       0.00000000       2.24226924        2
Ti       8.96907695       0.00000000       4.48453848        1
Ti       8.96907695       2.24226924       6.72680771        1
Ta      11.21134619       0.00000000       6.72680771        1
Hf      11.21134619       2.24226924       4.48453848        1
N       11.21134619       2.24226924       6.72680771        2
N       11.21134619       0.00000000       4.48453848        2
N        8.96907695       2.24226924       4.48453848        2
N        8.96907695       0.00000000       6.72680771        2
Nb       8.96907695       0.00000000       8.96907695        1
Nb       8.96907695       2.24226924      11.21134619        1
Zr      11.21134619       0.00000000      11.21134619        1
Ta      11.21134619       2.24226924       8.96907695        1
N       11.21134619       2.24226924      11.21134619        2
N       11.21134619       0.00000000       8.96907695        2
N        8.96907695       2.24226924       8.96907695        2
N        8.96907695       0.00000000      11.21134619        2
Hf       8.96907695       4.48453848       0.00000000        1
Nb       8.96907695       6.72680771       2.24226924        1
Nb      11.21134619       4.48453848       2.24226924        1
Ta      11.21134619       6.72680771       0.00000000        1
N       11.21134619       6.72680771       2.24226924        2
N       11.21134619       4.48453848       0.00000000        2
N        8.96907695       6.72680771       0.00000000        2
N        8.96907695       4.48453848       2.24226924        2
Hf       8.96907695       4.48453848       4.48453848        1
Ta       8.96907695       6.72680771       6.72680771        1
Hf      11.21134619       4.48453848       6.72680771        1
Ta      11.21134619       6.72680771       4.48453848        1
N       11.21134619       6.72680771       6.72680771        2
N       11.21134619       4.48453848       4.48453848        2
N        8.96907695       6.72680771       4.48453848        2
N        8.96907695       4.48453848       6.72680771        2
Nb       8.96907695       4.48453848       8.96907695        1
Hf       8.96907695       6.72680771      11.21134619        1
Ta      11.21134619       4.48453848      11.21134619        1
Zr      11.21134619       6.72680771       8.96907695        1
N       11.21134619       6.72680771      11.21134619        2
N       11.21134619       4.48453848       8.96907695        2
N        8.96907695       6.72680771       8.96907695        2
N        8.96907695       4.48453848      11.21134619        2
Zr       8.96907695       8.96907695       0.00000000        1
Hf       8.96907695      11.21134619       2.24226924        1
Zr      11.21134619       8.96907695       2.24226924        1
Nb      11.21134619      11.21134619       0.00000000        1
N       11.21134619      11.21134619       2.24226924        2
N       11.21134619       8.96907695       0.00000000        2
N        8.96907695      11.21134619       0.00000000        2
N        8.96907695       8.96907695       2.24226924        2
Ti       8.96907695       8.96907695       4.48453848        1
Ti       8.96907695      11.21134619       6.72680771        1
Ti      11.21134619       8.96907695       6.72680771        1
Nb      11.21134619      11.21134619       4.48453848        1
N       11.21134619      11.21134619       6.72680771        2
N       11.21134619       8.96907695       4.48453848        2
N        8.96907695      11.21134619       4.48453848        2
N        8.96907695       8.96907695       6.72680771        2
Ta       8.96907695       8.96907695       8.96907695        1
Ti       8.96907695      11.21134619      11.21134619        1
Nb      11.21134619       8.96907695      11.21134619        1
Zr      11.21134619      11.21134619       8.96907695        1
N       11.21134619      11.21134619      11.21134619        2
N       11.21134619       8.96907695       8.96907695        2
N        8.96907695      11.21134619       8.96907695        2
N        8.96907695       8.96907695      11.21134619        2
216
Lattice="13.453615425789224 0.0 0.0 0.0 13.453615425789224 0.0 0.0 0.0 13.453615425789224" Properties=species:S:1:pos:R:3:tags:I:1 sqs_abs_alpha=0.1424658458424692 energy=-2238.5524757013663 mc_step=300 energy_method=uma rosenbluth_W_new=5.323106600245235 rosenbluth_W_old=2.982245428133512 pbc="T T T"
Zr       0.00000000       0.00000000       0.00000000        1
Hf       0.00000000       2.24226924       2.24226924        1
Ti       2.24226924       0.00000000       2.24226924        1
Nb       2.24226924       2.24226924       0.00000000        1
N        2.24226924       2.24226924       2.24226924        2
N        2.24226924       0.00000000       0.00000000        2
N        0.00000000       2.24226924       0.00000000        2
N        0.00000000       0.00000000       2.24226924        2
Nb       0.00000000       0.00000000       4.48453848        1
Ta       0.00000000       2.24226924       6.72680771        1
Zr       2.24226924       0.00000000       6.72680771        1
Ti       2.24226924       2.24226924       4.48453848        1
N        2.24226924       2.24226924       6.72680771        2
N        2.24226924       0.00000000       4.48453848        2
N        0.00000000       2.24226924       4.48453848        2
N        0.00000000       0.00000000       6.72680771        2
Zr       0.00000000       0.00000000       8.96907695        1
Hf       0.00000000       2.24226924      11.21134619        1
Nb       2.24226924       0.00000000      11.21134619        1
Ti       2.24226924       2.24226924       8.96907695        1
N        2.24226924       2.24226924      11.21134619        2
N        2.24226924       0.00000000       8.96907695        2
N        0.00000000       2.24226924       8.96907695        2
N        0.00000000       0.00000000      11.21134619        2
Zr       0.00000000       4.48453848       0.00000000        1
Zr       0.00000000       6.72680771       2.24226924        1
Nb       2.24226924       4.48453848       2.24226924        1
Zr       2.24226924       6.72680771       0.00000000        1
N        2.24226924       6.72680771       2.24226924        2
N        2.24226924       4.48453848       0.00000000        2
N        0.00000000       6.72680771       0.00000000        2
N        0.00000000       4.48453848       2.24226924        2
Nb       0.00000000       4.48453848       4.48453848        1
Ta       0.00000000       6.72680771       6.72680771        1
Ti       2.24226924       4.48453848       6.72680771        1
Zr       2.24226924       6.72680771       4.48453848        1
N        2.24226924       6.72680771       6.72680771        2
N        2.24226924       4.48453848       4.48453848        2
N        0.00000000       6.72680771       4.48453848        2
N        0.00000000       4.48453848       6.72680771        2
Hf       0.00000000       4.48453848       8.96907695        1
Hf       0.00000000       6.72680771      11.21134619        1
Ta       2.24226924       4.48453848      11.21134619        1
Ti       2.24226924       6.72680771       8.96907695        1
N        2.24226924       6.72680771      11.21134619        2
N        2.24226924       4.48453848       8.96907695        2
N        0.00000000       6.72680771       8.96907695        2
N        0.00000000       4.48453848      11.21134619        2
Nb       0.00000000       8.96907695       0.00000000        1
Ti       0.00000000      11.21134619       2.24226924        1
Nb       2.24226924       8.96907695       2.24226924        1
Zr       2.24226924      11.21134619       0.00000000        1
N        2.24226924      11.21134619       2.24226924        2
N        2.24226924       8.96907695       0.00000000        2
N        0.00000000      11.21134619       0.00000000        2
N        0.00000000       8.96907695       2.24226924        2
Hf       0.00000000       8.96907695       4.48453848        1
Hf       0.00000000      11.21134619       6.72680771        1
Ti       2.24226924       8.96907695       6.72680771        1
Hf       2.24226924      11.21134619       4.48453848        1
N        2.24226924      11.21134619       6.72680771        2
N        2.24226924       8.96907695       4.48453848        2
N        0.00000000      11.21134619       4.48453848        2
N        0.00000000       8.96907695       6.72680771        2
Ta       0.00000000       8.96907695       8.96907695        1
Nb       0.00000000      11.21134619      11.21134619        1
Zr       2.24226924       8.96907695      11.21134619        1
Ti       2.24226924      11.21134619       8.96907695        1
N        2.24226924      11.21134619      11.21134619        2
N        2.24226924       8.96907695       8.96907695        2
N        0.00000000      11.21134619       8.96907695        2
N        0.00000000       8.96907695      11.21134619        2
Zr       4.48453848       0.00000000       0.00000000        1
Ta       4.48453848       2.24226924       2.24226924        1
Ta       6.72680771       0.00000000       2.24226924        1
Zr       6.72680771       2.24226924       0.00000000        1
N        6.72680771       2.24226924       2.24226924        2
N        6.72680771       0.00000000       0.00000000        2
N        4.48453848       2.24226924       0.00000000        2
N        4.48453848       0.00000000       2.24226924        2
Ta       4.48453848       0.00000000       4.48453848        1
Ta       4.48453848       2.24226924       6.72680771        1
Ti       6.72680771       0.00000000       6.72680771        1
Ti       6.72680771       2.24226924       4.48453848        1
N        6.72680771       2.24226924       6.72680771        2
N        6.72680771       0.00000000       4.48453848        2
N        4.48453848       2.24226924       4.48453848        2
N        4.48453848       0.00000000       6.72680771        2
Ta       4.48453848       0.00000000       8.96907695        1
Ti       4.48453848       2.24226924      11.21134619        1
Ti       6.72680771       0.00000000      11.21134619        1
Ta       6.72680771       2.24226924       8.96907695        1
N        6.72680771       2.24226924      11.21134619        2
N        6.72680771       0.00000000       8.96907695        2
N        4.48453848       2.24226924       8.96907695        2
N        4.48453848       0.00000000      11.21134619        2
Ta       4.48453848       4.48453848       0.00000000        1
Nb       4.48453848       6.72680771       2.24226924        1
Nb       6.72680771       4.48453848       2.24226924        1
Ta       6.72680771       6.72680771       0.00000000        1
N        6.72680771       6.72680771       2.24226924        2
N        6.72680771       4.48453848       0.00000000        2
N        4.48453848       6.72680771       0.00000000        2
N        4.48453848       4.48453848       2.24226924        2
Zr       4.48453848       4.48453848       4.48453848        1
Hf       4.48453848       6.72680771       6.72680771        1
Nb       6.72680771       4.48453848       6.72680771        1
Ta       6.72680771       6.72680771       4.48453848        1
N        6.72680771       6.72680771       6.72680771        2
N        6.72680771       4.48453848       4.48453848        2
N        4.48453848       6.72680771       4.48453848        2
N        4.48453848       4.48453848       6.72680771        2
Hf       4.48453848       4.48453848       8.96907695        1
Zr       4.48453848       6.72680771      11.21134619        1
Zr       6.72680771       4.48453848      11.21134619        1
Ti       6.72680771       6.72680771       8.96907695        1
N        6.72680771       6.72680771      11.21134619        2
N        6.72680771       4.48453848       8.96907695        2
N        4.48453848       6.72680771       8.96907695        2
N        4.48453848       4.48453848      11.21134619        2
Ti       4.48453848       8.96907695       0.00000000        1
Ta       4.48453848      11.21134619       2.24226924        1
Hf       6.72680771       8.96907695       2.24226924        1
Nb       6.72680771      11.21134619       0.00000000        1
N        6.72680771      11.21134619       2.24226924        2
N        6.72680771       8.96907695       0.00000000        2
N        4.48453848      11.21134619       0.00000000        2
N        4.48453848       8.96907695       2.24226924        2
Ta       4.48453848       8.96907695       4.48453848        1
Ti       4.48453848      11.21134619       6.72680771        1
Zr       6.72680771       8.96907695       6.72680771        1
Hf       6.72680771      11.21134619       4.48453848        1
N        6.72680771      11.21134619       6.72680771        2
N        6.72680771       8.96907695       4.48453848        2
N        4.48453848      11.21134619       4.48453848        2
N        4.48453848       8.96907695       6.72680771        2
Nb       4.48453848       8.96907695       8.96907695        1
Zr       4.48453848      11.21134619      11.21134619        1
Ti       6.72680771       8.96907695      11.21134619        1
Hf       6.72680771      11.21134619       8.96907695        1
N        6.72680771      11.21134619      11.21134619        2
N        6.72680771       8.96907695       8.96907695        2
N        4.48453848      11.21134619       8.96907695        2
N        4.48453848       8.96907695      11.21134619        2
Zr       8.96907695       0.00000000       0.00000000        1
Zr       8.96907695       2.24226924       2.24226924        1
Zr      11.21134619       0.00000000       2.24226924        1
Nb      11.21134619       2.24226924       0.00000000        1
N       11.21134619       2.24226924       2.24226924        2
N       11.21134619       0.00000000       0.00000000        2
N        8.96907695       2.24226924       0.00000000        2
N        8.96907695       0.00000000       2.24226924        2
Ti       8.96907695       0.00000000       4.48453848        1
Zr       8.96907695       2.24226924       6.72680771        1
Nb      11.21134619       0.00000000       6.72680771        1
Nb      11.21134619       2.24226924       4.48453848        1
N       11.21134619       2.24226924       6.72680771        2
N       11.21134619       0.00000000       4.48453848        2
N        8.96907695       2.24226924       4.48453848        2
N        8.96907695       0.00000000       6.72680771        2
Nb       8.96907695       0.00000000       8.96907695        1
Nb       8.96907695       2.24226924      11.21134619        1
Ti      11.21134619       0.00000000      11.21134619        1
Ta      11.21134619       2.24226924       8.96907695        1
N       11.21134619       2.24226924      11.21134619        2
N       11.21134619       0.00000000       8.96907695        2
N        8.96907695       2.24226924       8.96907695        2
N        8.96907695       0.00000000      11.21134619        2
Hf       8.96907695       4.48453848       0.00000000        1
Hf       8.96907695       6.72680771       2.24226924        1
Nb      11.21134619       4.48453848       2.24226924        1
Ta      11.21134619       6.72680771       0.00000000        1
N       11.21134619       6.72680771       2.24226924        2
N       11.21134619       4.48453848       0.00000000        2
N        8.96907695       6.72680771       0.00000000        2
N        8.96907695       4.48453848       2.24226924        2
Hf       8.96907695       4.48453848       4.48453848        1
Ta       8.96907695       6.72680771       6.72680771        1
Hf      11.21134619       4.48453848       6.72680771        1
Nb      11.21134619       6.72680771       4.48453848        1
N       11.21134619       6.72680771       6.72680771        2
N       11.21134619       4.48453848       4.48453848        2
N        8.96907695       6.72680771       4.48453848        2
N        8.96907695       4.48453848       6.72680771        2
Zr       8.96907695       4.48453848       8.96907695        1
Ta       8.96907695       6.72680771      11.21134619        1
Ti      11.21134619       4.48453848      11.21134619        1
Ti      11.21134619       6.72680771       8.96907695        1
N       11.21134619       6.72680771      11.21134619        2
N       11.21134619       4.48453848       8.96907695        2
N        8.96907695       6.72680771       8.96907695        2
N        8.96907695       4.48453848      11.21134619        2
Hf       8.96907695       8.96907695       0.00000000        1
Ta       8.96907695      11.21134619       2.24226924        1
Ta      11.21134619       8.96907695       2.24226924        1
Hf      11.21134619      11.21134619       0.00000000        1
N       11.21134619      11.21134619       2.24226924        2
N       11.21134619       8.96907695       0.00000000        2
N        8.96907695      11.21134619       0.00000000        2
N        8.96907695       8.96907695       2.24226924        2
Ti       8.96907695       8.96907695       4.48453848        1
Zr       8.96907695      11.21134619       6.72680771        1
Ti      11.21134619       8.96907695       6.72680771        1
Hf      11.21134619      11.21134619       4.48453848        1
N       11.21134619      11.21134619       6.72680771        2
N       11.21134619       8.96907695       4.48453848        2
N        8.96907695      11.21134619       4.48453848        2
N        8.96907695       8.96907695       6.72680771        2
Hf       8.96907695       8.96907695       8.96907695        1
Hf       8.96907695      11.21134619      11.21134619        1
Nb      11.21134619       8.96907695      11.21134619        1
Hf      11.21134619      11.21134619       8.96907695        1
N       11.21134619      11.21134619      11.21134619        2
N       11.21134619       8.96907695       8.96907695        2
N        8.96907695      11.21134619       8.96907695        2
N        8.96907695       8.96907695      11.21134619        2
216
Lattice="13.453615425789224 0.0 0.0 0.0 13.453615425789224 0.0 0.0 0.0 13.453615425789224" Properties=species:S:1:pos:R:3:tags:I:1 sqs_abs_alpha=0.136205093607691 energy=-2238.399759616731 mc_step=350 energy_method=uma rosenbluth_W_new=3.2910710878667992 rosenbluth_W_old=3.183059552003801 pbc="T T T"
Nb       0.00000000       0.00000000       0.00000000        1
Hf       0.00000000       2.24226924       2.24226924        1
Nb       2.24226924       0.00000000       2.24226924        1
Ta       2.24226924       2.24226924       0.00000000        1
N        2.24226924       2.24226924       2.24226924        2
N        2.24226924       0.00000000       0.00000000        2
N        0.00000000       2.24226924       0.00000000        2
N        0.00000000       0.00000000       2.24226924        2
Hf       0.00000000       0.00000000       4.48453848        1
Ta       0.00000000       2.24226924       6.72680771        1
Zr       2.24226924       0.00000000       6.72680771        1
Ti       2.24226924       2.24226924       4.48453848        1
N        2.24226924       2.24226924       6.72680771        2
N        2.24226924       0.00000000       4.48453848        2
N        0.00000000       2.24226924       4.48453848        2
N        0.00000000       0.00000000       6.72680771        2
Zr       0.00000000       0.00000000       8.96907695        1
Nb       0.00000000       2.24226924      11.21134619        1
Hf       2.24226924       0.00000000      11.21134619        1
Ti       2.24226924       2.24226924       8.96907695        1
N        2.24226924       2.24226924      11.21134619        2
N        2.24226924       0.00000000       8.96907695        2
N        0.00000000       2.24226924       8.96907695        2
N        0.00000000       0.00000000      11.21134619        2
Zr       0.00000000       4.48453848       0.00000000        1
Zr       0.00000000       6.72680771       2.24226924        1
Zr       2.24226924       4.48453848       2.24226924        1
Zr       2.24226924       6.72680771       0.00000000        1
N        2.24226924       6.72680771       2.24226924        2
N        2.24226924       4.48453848       0.00000000        2
N        0.00000000       6.72680771       0.00000000        2
N        0.00000000       4.48453848       2.24226924        2
Nb       0.00000000       4.48453848       4.48453848        1
Ta       0.00000000       6.72680771       6.72680771        1
Ta       2.24226924       4.48453848       6.72680771        1
Hf       2.24226924       6.72680771       4.48453848        1
N        2.24226924       6.72680771       6.72680771        2
N        2.24226924       4.48453848       4.48453848        2
N        0.00000000       6.72680771       4.48453848        2
N        0.00000000       4.48453848       6.72680771        2
Ta       0.00000000       4.48453848       8.96907695        1
Hf       0.00000000       6.72680771      11.21134619        1
Ta       2.24226924       4.48453848      11.21134619        1
Nb       2.24226924       6.72680771       8.96907695        1
N        2.24226924       6.72680771      11.21134619        2
N        2.24226924       4.48453848       8.96907695        2
N        0.00000000       6.72680771       8.96907695        2
N        0.00000000       4.48453848      11.21134619        2
Ta       0.00000000       8.96907695       0.00000000        1
Ti       0.00000000      11.21134619       2.24226924        1
Nb       2.24226924       8.96907695       2.24226924        1
Zr       2.24226924      11.21134619       0.00000000        1
N        2.24226924      11.21134619       2.24226924        2
N        2.24226924       8.96907695       0.00000000        2
N        0.00000000      11.21134619       0.00000000        2
N        0.00000000       8.96907695       2.24226924        2
Hf       0.00000000       8.96907695       4.48453848        1
Hf       0.00000000      11.21134619       6.72680771        1
Zr       2.24226924       8.96907695       6.72680771        1
Zr       2.24226924      11.21134619       4.48453848        1
N        2.24226924      11.21134619       6.72680771        2
N        2.24226924       8.96907695       4.48453848        2
N        0.00000000      11.21134619       4.48453848        2
N        0.00000000       8.96907695       6.72680771        2
Ta       0.00000000       8.96907695       8.96907695        1
Hf       0.00000000      11.21134619      11.21134619        1
Ti       2.24226924       8.96907695      11.21134619        1
Ti       2.24226924      11.21134619       8.96907695        1
N        2.24226924      11.21134619      11.21134619        2
N        2.24226924       8.96907695       8.96907695        2
N        0.00000000      11.21134619       8.96907695        2
N        0.00000000       8.96907695      11.21134619        2
Zr       4.48453848       0.00000000       0.00000000        1
Ti       4.48453848       2.24226924       2.24226924        1
Ta       6.72680771       0.00000000       2.24226924        1
Zr       6.72680771       2.24226924       0.00000000        1
N        6.72680771       2.24226924       2.24226924        2
N        6.72680771       0.00000000       0.00000000        2
N        4.48453848       2.24226924       0.00000000        2
N        4.48453848       0.00000000       2.24226924        2
Ta       4.48453848       0.00000000       4.48453848        1
Hf       4.48453848       2.24226924       6.72680771        1
Ti       6.72680771       0.00000000       6.72680771        1
Zr       6.72680771       2.24226924       4.48453848        1
N        6.72680771       2.24226924       6.72680771        2
N        6.72680771       0.00000000       4.48453848        2
N        4.48453848       2.24226924       4.48453848        2
N        4.48453848       0.00000000       6.72680771        2
Ta       4.48453848       0.00000000       8.96907695        1
Nb       4.48453848       2.24226924      11.21134619        1
Nb       6.72680771       0.00000000      11.21134619        1
Ta       6.72680771       2.24226924       8.96907695        1
N        6.72680771       2.24226924      11.21134619        2
N        6.72680771       0.00000000       8.96907695        2
N        4.48453848       2.24226924       8.96907695        2
N        4.48453848       0.00000000      11.21134619        2
Hf       4.48453848       4.48453848       0.00000000        1
Nb       4.48453848       6.72680771       2.24226924        1
Ti       6.72680771       4.48453848       2.24226924        1
Ta       6.72680771       6.72680771       0.00000000        1
N        6.72680771       6.72680771       2.24226924        2
N        6.72680771       4.48453848       0.00000000        2
N        4.48453848       6.72680771       0.00000000        2
N        4.48453848       4.48453848       2.24226924        2
Nb       4.48453848       4.48453848       4.48453848        1
Ti       4.48453848       6.72680771       6.72680771        1
Ti       6.72680771       4.48453848       6.72680771        1
Hf       6.72680771       6.72680771       4.48453848        1
N        6.72680771       6.72680771       6.72680771        2
N        6.72680771       4.48453848       4.48453848        2
N        4.48453848       6.72680771       4.48453848        2
N        4.48453848       4.48453848       6.72680771        2
Ti       4.48453848       4.48453848       8.96907695        1
Ti       4.48453848       6.72680771      11.21134619        1
Zr       6.72680771       4.48453848      11.21134619        1
Ti       6.72680771       6.72680771       8.96907695        1
N        6.72680771       6.72680771      11.21134619        2
N        6.72680771       4.48453848       8.96907695        2
N        4.48453848       6.72680771       8.96907695        2
N        4.48453848       4.48453848      11.21134619        2
Hf       4.48453848       8.96907695       0.00000000        1
Ti       4.48453848      11.21134619       2.24226924        1
Hf       6.72680771       8.96907695       2.24226924        1
Nb       6.72680771      11.21134619       0.00000000        1
N        6.72680771      11.21134619       2.24226924        2
N        6.72680771       8.96907695       0.00000000        2
N        4.48453848      11.21134619       0.00000000        2
N        4.48453848       8.96907695       2.24226924        2
Ta       4.48453848       8.96907695       4.48453848        1
Nb       4.48453848      11.21134619       6.72680771        1
Zr       6.72680771       8.96907695       6.72680771        1
Hf       6.72680771      11.21134619       4.48453848        1
N        6.72680771      11.21134619       6.72680771        2
N        6.72680771       8.96907695       4.48453848        2
N        4.48453848      11.21134619       4.48453848        2
N        4.48453848       8.96907695       6.72680771        2
Ta       4.48453848       8.96907695       8.96907695        1
Zr       4.48453848      11.21134619      11.21134619        1
Ta       6.72680771       8.96907695      11.21134619        1
Hf       6.72680771      11.21134619       8.96907695        1
N        6.72680771      11.21134619      11.21134619        2
N        6.72680771       8.96907695       8.96907695        2
N        4.48453848      11.21134619       8.96907695        2
N        4.48453848       8.96907695      11.21134619        2
Zr       8.96907695       0.00000000       0.00000000        1
Nb       8.96907695       2.24226924       2.24226924        1
Zr      11.21134619       0.00000000       2.24226924        1
Nb      11.21134619       2.24226924       0.00000000        1
N       11.21134619       2.24226924       2.24226924        2
N       11.21134619       0.00000000       0.00000000        2
N        8.96907695       2.24226924       0.00000000        2
N        8.96907695       0.00000000       2.24226924        2
Nb       8.96907695       0.00000000       4.48453848        1
Zr       8.96907695       2.24226924       6.72680771        1
Nb      11.21134619       0.00000000       6.72680771        1
Ti      11.21134619       2.24226924       4.48453848        1
N       11.21134619       2.24226924       6.72680771        2
N       11.21134619       0.00000000       4.48453848        2
N        8.96907695       2.24226924       4.48453848        2
N        8.96907695       0.00000000       6.72680771        2
Ta       8.96907695       0.00000000       8.96907695        1
Ti       8.96907695       2.24226924      11.21134619        1
Nb      11.21134619       0.00000000      11.21134619        1
Zr      11.21134619       2.24226924       8.96907695        1
N       11.21134619       2.24226924      11.21134619        2
N       11.21134619       0.00000000       8.96907695        2
N        8.96907695       2.24226924       8.96907695        2
N        8.96907695       0.00000000      11.21134619        2
Hf       8.96907695       4.48453848       0.00000000        1
Ti       8.96907695       6.72680771       2.24226924        1
Ta      11.21134619       4.48453848       2.24226924        1
Ti      11.21134619       6.72680771       0.00000000        1
N       11.21134619       6.72680771       2.24226924        2
N       11.21134619       4.48453848       0.00000000        2
N        8.96907695       6.72680771       0.00000000        2
N        8.96907695       4.48453848       2.24226924        2
Hf       8.96907695       4.48453848       4.48453848        1
Ti       8.96907695       6.72680771       6.72680771        1
Hf      11.21134619       4.48453848       6.72680771        1
Nb      11.21134619       6.72680771       4.48453848        1
N       11.21134619       6.72680771       6.72680771        2
N       11.21134619       4.48453848       4.48453848        2
N        8.96907695       6.72680771       4.48453848        2
N        8.96907695       4.48453848       6.72680771        2
Nb       8.96907695       4.48453848       8.96907695        1
Ti       8.96907695       6.72680771      11.21134619        1
Ti      11.21134619       4.48453848      11.21134619        1
Ta      11.21134619       6.72680771       8.96907695        1
N       11.21134619       6.72680771      11.21134619        2
N       11.21134619       4.48453848       8.96907695        2
N        8.96907695       6.72680771       8.96907695        2
N        8.96907695       4.48453848      11.21134619        2
Hf       8.96907695       8.96907695       0.00000000        1
Ta       8.96907695      11.21134619       2.24226924        1
Ta      11.21134619       8.96907695       2.24226924        1
Hf      11.21134619      11.21134619       0.00000000        1
N       11.21134619      11.21134619       2.24226924        2
N       11.21134619       8.96907695       0.00000000        2
N        8.96907695      11.21134619       0.00000000        2
N        8.96907695       8.96907695       2.24226924        2
Hf       8.96907695       8.96907695       4.48453848        1
Zr       8.96907695      11.21134619       6.72680771        1
Ti      11.21134619       8.96907695       6.72680771        1
Zr      11.21134619      11.21134619       4.48453848        1
N       11.21134619      11.21134619       6.72680771        2
N       11.21134619       8.96907695       4.48453848        2
N        8.96907695      11.21134619       4.48453848        2
N        8.96907695       8.96907695       6.72680771        2
Hf       8.96907695       8.96907695       8.96907695        1
Zr       8.96907695      11.21134619      11.21134619        1
Nb      11.21134619       8.96907695      11.21134619        1
Nb      11.21134619      11.21134619       8.96907695        1
N       11.21134619      11.21134619      11.21134619        2
N       11.21134619       8.96907695       8.96907695        2
N        8.96907695      11.21134619       8.96907695        2
N        8.96907695       8.96907695      11.21134619        2
216
Lattice="13.453615425789224 0.0 0.0 0.0 13.453615425789224 0.0 0.0 0.0 13.453615425789224" Properties=species:S:1:pos:R:3:tags:I:1 sqs_abs_alpha=0.10116039804351493 energy=-2238.2826575690087 mc_step=400 energy_method=uma rosenbluth_W_new=5.048997530408416 rosenbluth_W_old=5.472932173669865 pbc="T T T"
Nb       0.00000000       0.00000000       0.00000000        1
Hf       0.00000000       2.24226924       2.24226924        1
Ti       2.24226924       0.00000000       2.24226924        1
Ta       2.24226924       2.24226924       0.00000000        1
N        2.24226924       2.24226924       2.24226924        2
N        2.24226924       0.00000000       0.00000000        2
N        0.00000000       2.24226924       0.00000000        2
N        0.00000000       0.00000000       2.24226924        2
Ta       0.00000000       0.00000000       4.48453848        1
Ti       0.00000000       2.24226924       6.72680771        1
Zr       2.24226924       0.00000000       6.72680771        1
Ti       2.24226924       2.24226924       4.48453848        1
N        2.24226924       2.24226924       6.72680771        2
N        2.24226924       0.00000000       4.48453848        2
N        0.00000000       2.24226924       4.48453848        2
N        0.00000000       0.00000000       6.72680771        2
Zr       0.00000000       0.00000000       8.96907695        1
Nb       0.00000000       2.24226924      11.21134619        1
Hf       2.24226924       0.00000000      11.21134619        1
Ti       2.24226924       2.24226924       8.96907695        1
N        2.24226924       2.24226924      11.21134619        2
N        2.24226924       0.00000000       8.96907695        2
N        0.00000000       2.24226924       8.96907695        2
N        0.00000000       0.00000000      11.21134619        2
Zr       0.00000000       4.48453848       0.00000000        1
Zr       0.00000000       6.72680771       2.24226924        1
Ta       2.24226924       4.48453848       2.24226924        1
Zr       2.24226924       6.72680771       0.00000000        1
N        2.24226924       6.72680771       2.24226924        2
N        2.24226924       4.48453848       0.00000000        2
N        0.00000000       6.72680771       0.00000000        2
N        0.00000000       4.48453848       2.24226924        2
Nb       0.00000000       4.48453848       4.48453848        1
Ta       0.00000000       6.72680771       6.72680771        1
Ta       2.24226924       4.48453848       6.72680771        1
Hf       2.24226924       6.72680771       4.48453848        1
N        2.24226924       6.72680771       6.72680771        2
N        2.24226924       4.48453848       4.48453848        2
N        0.00000000       6.72680771       4.48453848        2
N        0.00000000       4.48453848       6.72680771        2
Zr       0.00000000       4.48453848       8.96907695        1
Hf       0.00000000       6.72680771      11.21134619        1
Ta       2.24226924       4.48453848      11.21134619        1
Ta       2.24226924       6.72680771       8.96907695        1
N        2.24226924       6.72680771      11.21134619        2
N        2.24226924       4.48453848       8.96907695        2
N        0.00000000       6.72680771       8.96907695        2
N        0.00000000       4.48453848      11.21134619        2
Nb       0.00000000       8.96907695       0.00000000        1
Hf       0.00000000      11.21134619       2.24226924        1
Nb       2.24226924       8.96907695       2.24226924        1
Hf       2.24226924      11.21134619       0.00000000        1
N        2.24226924      11.21134619       2.24226924        2
N        2.24226924       8.96907695       0.00000000        2
N        0.00000000      11.21134619       0.00000000        2
N        0.00000000       8.96907695       2.24226924        2
Ti       0.00000000       8.96907695       4.48453848        1
Hf       0.00000000      11.21134619       6.72680771        1
Zr       2.24226924       8.96907695       6.72680771        1
Ta       2.24226924      11.21134619       4.48453848        1
N        2.24226924      11.21134619       6.72680771        2
N        2.24226924       8.96907695       4.48453848        2
N        0.00000000      11.21134619       4.48453848        2
N        0.00000000       8.96907695       6.72680771        2
Hf       0.00000000       8.96907695       8.96907695        1
Hf       0.00000000      11.21134619      11.21134619        1
Ti       2.24226924       8.96907695      11.21134619        1
Ti       2.24226924      11.21134619       8.96907695        1
N        2.24226924      11.21134619      11.21134619        2
N        2.24226924       8.96907695       8.96907695        2
N        0.00000000      11.21134619       8.96907695        2
N        0.00000000       8.96907695      11.21134619        2
Zr       4.48453848       0.00000000       0.00000000        1
Ti       4.48453848       2.24226924       2.24226924        1
Ta       6.72680771       0.00000000       2.24226924        1
Zr       6.72680771       2.24226924       0.00000000        1
N        6.72680771       2.24226924       2.24226924        2
N        6.72680771       0.00000000       0.00000000        2
N        4.48453848       2.24226924       0.00000000        2
N        4.48453848       0.00000000       2.24226924        2
Hf       4.48453848       0.00000000       4.48453848        1
Ti       4.48453848       2.24226924       6.72680771        1
Hf       6.72680771       0.00000000       6.72680771        1
Zr       6.72680771       2.24226924       4.48453848        1
N        6.72680771       2.24226924       6.72680771        2
N        6.72680771       0.00000000       4.48453848        2
N        4.48453848       2.24226924       4.48453848        2
N        4.48453848       0.00000000       6.72680771        2
Ta       4.48453848       0.00000000       8.96907695        1
Ta       4.48453848       2.24226924      11.21134619        1
Zr       6.72680771       0.00000000      11.21134619        1
Nb       6.72680771       2.24226924       8.96907695        1
N        6.72680771       2.24226924      11.21134619        2
N        6.72680771       0.00000000       8.96907695        2
N        4.48453848       2.24226924       8.96907695        2
N        4.48453848       0.00000000      11.21134619        2
Nb       4.48453848       4.48453848       0.00000000        1
Zr       4.48453848       6.72680771       2.24226924        1
Ti       6.72680771       4.48453848       2.24226924        1
Ta       6.72680771       6.72680771       0.00000000        1
N        6.72680771       6.72680771       2.24226924        2
N        6.72680771       4.48453848       0.00000000        2
N        4.48453848       6.72680771       0.00000000        2
N        4.48453848       4.48453848       2.24226924        2
Zr       4.48453848       4.48453848       4.48453848        1
Nb       4.48453848       6.72680771       6.72680771        1
Ti       6.72680771       4.48453848       6.72680771        1
Hf       6.72680771       6.72680771       4.48453848        1
N        6.72680771       6.72680771       6.72680771        2
N        6.72680771       4.48453848       4.48453848        2
N        4.48453848       6.72680771       4.48453848        2
N        4.48453848       4.48453848       6.72680771        2
Zr       4.48453848       4.48453848       8.96907695        1
Ti       4.48453848       6.72680771      11.21134619        1
Ta       6.72680771       4.48453848      11.21134619        1
Nb       6.72680771       6.72680771       8.96907695        1
N        6.72680771       6.72680771      11.21134619        2
N        6.72680771       4.48453848       8.96907695        2
N        4.48453848       6.72680771       8.96907695        2
N        4.48453848       4.48453848      11.21134619        2
Hf       4.48453848       8.96907695       0.00000000        1
Ti       4.48453848      11.21134619       2.24226924        1
Nb       6.72680771       8.96907695       2.24226924        1
Ta       6.72680771      11.21134619       0.00000000        1
N        6.72680771      11.21134619       2.24226924        2
N        6.72680771       8.96907695       0.00000000        2
N        4.48453848      11.21134619       0.00000000        2
N        4.48453848       8.96907695       2.24226924        2
Nb       4.48453848       8.96907695       4.48453848        1
Nb       4.48453848      11.21134619       6.72680771        1
Ta       6.72680771       8.96907695       6.72680771        1
Hf       6.72680771      11.21134619       4.48453848        1
N        6.72680771      11.21134619       6.72680771        2
N        6.72680771       8.96907695       4.48453848        2
N        4.48453848      11.21134619       4.48453848        2
N        4.48453848       8.96907695       6.72680771        2
Ti       4.48453848       8.96907695       8.96907695        1
Hf       4.48453848      11.21134619      11.21134619        1
Zr       6.72680771       8.96907695      11.21134619        1
Hf       6.72680771      11.21134619       8.96907695        1
N        6.72680771      11.21134619      11.21134619        2
N        6.72680771       8.96907695       8.96907695        2
N        4.48453848      11.21134619       8.96907695        2
N        4.48453848       8.96907695      11.21134619        2
Zr       8.96907695       0.00000000       0.00000000        1
Nb       8.96907695       2.24226924       2.24226924        1
Hf      11.21134619       0.00000000       2.24226924        1
Nb      11.21134619       2.24226924       0.00000000        1
N       11.21134619       2.24226924       2.24226924        2
N       11.21134619       0.00000000       0.00000000        2
N        8.96907695       2.24226924       0.00000000        2
N        8.96907695       0.00000000       2.24226924        2
Ta       8.96907695       0.00000000       4.48453848        1
Nb       8.96907695       2.24226924       6.72680771        1
Nb      11.21134619       0.00000000       6.72680771        1
Ti      11.21134619       2.24226924       4.48453848        1
N       11.21134619       2.24226924       6.72680771        2
N       11.21134619       0.00000000       4.48453848        2
N        8.96907695       2.24226924       4.48453848        2
N        8.96907695       0.00000000       6.72680771        2
Ta       8.96907695       0.00000000       8.96907695        1
Ti       8.96907695       2.24226924      11.21134619        1
Ti      11.21134619       0.00000000      11.21134619        1
Zr      11.21134619       2.24226924       8.96907695        1
N       11.21134619       2.24226924      11.21134619        2
N       11.21134619       0.00000000       8.96907695        2
N        8.96907695       2.24226924       8.96907695        2
N        8.96907695       0.00000000      11.21134619        2
Zr       8.96907695       4.48453848       0.00000000        1
Ti       8.96907695       6.72680771       2.24226924        1
Zr      11.21134619       4.48453848       2.24226924        1
Ti      11.21134619       6.72680771       0.00000000        1
N       11.21134619       6.72680771       2.24226924        2
N       11.21134619       4.48453848       0.00000000        2
N        8.96907695       6.72680771       0.00000000        2
N        8.96907695       4.48453848       2.24226924        2
Zr       8.96907695       4.48453848       4.48453848        1
Ta       8.96907695       6.72680771       6.72680771        1
Hf      11.21134619       4.48453848       6.72680771        1
Nb      11.21134619       6.72680771       4.48453848        1
N       11.21134619       6.72680771       6.72680771        2
N       11.21134619       4.48453848       4.48453848        2
N        8.96907695       6.72680771       4.48453848        2
N        8.96907695       4.48453848       6.72680771        2
Nb       8.96907695       4.48453848       8.96907695        1
Hf       8.96907695       6.72680771      11.21134619        1
Hf      11.21134619       4.48453848      11.21134619        1
Ta      11.21134619       6.72680771       8.96907695        1
N       11.21134619       6.72680771      11.21134619        2
N       11.21134619       4.48453848       8.96907695        2
N        8.96907695       6.72680771       8.96907695        2
N        8.96907695       4.48453848      11.21134619        2
Hf       8.96907695       8.96907695       0.00000000        1
Ti       8.96907695      11.21134619       2.24226924        1
Ta      11.21134619       8.96907695       2.24226924        1
Hf      11.21134619      11.21134619       0.00000000        1
N       11.21134619      11.21134619       2.24226924        2
N       11.21134619       8.96907695       0.00000000        2
N        8.96907695      11.21134619       0.00000000        2
N        8.96907695       8.96907695       2.24226924        2
Zr       8.96907695       8.96907695       4.48453848        1
Zr       8.96907695      11.21134619       6.72680771        1
Ti      11.21134619       8.96907695       6.72680771        1
Ti      11.21134619      11.21134619       4.48453848        1
N       11.21134619      11.21134619       6.72680771        2
N       11.21134619       8.96907695       4.48453848        2
N        8.96907695      11.21134619       4.48453848        2
N        8.96907695       8.96907695       6.72680771        2
Nb       8.96907695       8.96907695       8.96907695        1
Nb       8.96907695      11.21134619      11.21134619        1
Ta      11.21134619       8.96907695      11.21134619        1
Nb      11.21134619      11.21134619       8.96907695        1
N       11.21134619      11.21134619      11.21134619        2
N       11.21134619       8.96907695       8.96907695        2
N        8.96907695      11.21134619       8.96907695        2
N        8.96907695       8.96907695      11.21134619        2
216
Lattice="13.453615425789224 0.0 0.0 0.0 13.453615425789224 0.0 0.0 0.0 13.453615425789224" Properties=species:S:1:pos:R:3:tags:I:1 sqs_abs_alpha=0.07402260077584756 energy=-2238.2334558874145 mc_step=450 energy_method=uma rosenbluth_W_new=3.4672475993747804 rosenbluth_W_old=4.564232769869415 pbc="T T T"
Nb       0.00000000       0.00000000       0.00000000        1
Hf       0.00000000       2.24226924       2.24226924        1
Ti       2.24226924       0.00000000       2.24226924        1
Hf       2.24226924       2.24226924       0.00000000        1
N        2.24226924       2.24226924       2.24226924        2
N        2.24226924       0.00000000       0.00000000        2
N        0.00000000       2.24226924       0.00000000        2
N        0.00000000       0.00000000       2.24226924        2
Ta       0.00000000       0.00000000       4.48453848        1
Zr       0.00000000       2.24226924       6.72680771        1
Hf       2.24226924       0.00000000       6.72680771        1
Nb       2.24226924       2.24226924       4.48453848        1
N        2.24226924       2.24226924       6.72680771        2
N        2.24226924       0.00000000       4.48453848        2
N        0.00000000       2.24226924       4.48453848        2
N        0.00000000       0.00000000       6.72680771        2
Zr       0.00000000       0.00000000       8.96907695        1
Nb       0.00000000       2.24226924      11.21134619        1
Ta       2.24226924       0.00000000      11.21134619        1
Zr       2.24226924       2.24226924       8.96907695        1
N        2.24226924       2.24226924      11.21134619        2
N        2.24226924       0.00000000       8.96907695        2
N        0.00000000       2.24226924       8.96907695        2
N        0.00000000       0.00000000      11.21134619        2
Hf       0.00000000       4.48453848       0.00000000        1
Ti       0.00000000       6.72680771       2.24226924        1
Ta       2.24226924       4.48453848       2.24226924        1
Zr       2.24226924       6.72680771       0.00000000        1
N        2.24226924       6.72680771       2.24226924        2
N        2.24226924       4.48453848       0.00000000        2
N        0.00000000       6.72680771       0.00000000        2
N        0.00000000       4.48453848       2.24226924        2
Nb       0.00000000       4.48453848       4.48453848        1
Nb       0.00000000       6.72680771       6.72680771        1
Ta       2.24226924       4.48453848       6.72680771        1
Hf       2.24226924       6.72680771       4.48453848        1
N        2.24226924       6.72680771       6.72680771        2
N        2.24226924       4.48453848       4.48453848        2
N        0.00000000       6.72680771       4.48453848        2
N        0.00000000       4.48453848       6.72680771        2
Zr       0.00000000       4.48453848       8.96907695        1
Ta       0.00000000       6.72680771      11.21134619        1
Hf       2.24226924       4.48453848      11.21134619        1
Nb       2.24226924       6.72680771       8.96907695        1
N        2.24226924       6.72680771      11.21134619        2
N        2.24226924       4.48453848       8.96907695        2
N        0.00000000       6.72680771       8.96907695        2
N        0.00000000       4.48453848      11.21134619        2
Nb       0.00000000       8.96907695       0.00000000        1
Zr       0.00000000      11.21134619       2.24226924        1
Ta       2.24226924       8.96907695       2.24226924        1
Hf       2.24226924      11.21134619       0.00000000        1
N        2.24226924      11.21134619       2.24226924        2
N        2.24226924       8.96907695       0.00000000        2
N        0.00000000      11.21134619       0.00000000        2
N        0.00000000       8.96907695       2.24226924        2
Zr       0.00000000       8.96907695       4.48453848        1
Hf       0.00000000      11.21134619       6.72680771        1
Zr       2.24226924       8.96907695       6.72680771        1
Ta       2.24226924      11.21134619       4.48453848        1
N        2.24226924      11.21134619       6.72680771        2
N        2.24226924       8.96907695       4.48453848        2
N        0.00000000      11.21134619       4.48453848        2
N        0.00000000       8.96907695       6.72680771        2
Nb       0.00000000       8.96907695       8.96907695        1
Hf       0.00000000      11.21134619      11.21134619        1
Zr       2.24226924       8.96907695      11.21134619        1
Ti       2.24226924      11.21134619       8.96907695        1
N        2.24226924      11.21134619      11.21134619        2
N        2.24226924       8.96907695       8.96907695        2
N        0.00000000      11.21134619       8.96907695        2
N        0.00000000       8.96907695      11.21134619        2
Ta       4.48453848       0.00000000       0.00000000        1
Nb       4.48453848       2.24226924       2.24226924        1
Ta       6.72680771       0.00000000       2.24226924        1
Zr       6.72680771       2.24226924       0.00000000        1
N        6.72680771       2.24226924       2.24226924        2
N        6.72680771       0.00000000       0.00000000        2
N        4.48453848       2.24226924       0.00000000        2
N        4.48453848       0.00000000       2.24226924        2
Hf       4.48453848       0.00000000       4.48453848        1
Ta       4.48453848       2.24226924       6.72680771        1
Zr       6.72680771       0.00000000       6.72680771        1
Ta       6.72680771       2.24226924       4.48453848        1
N        6.72680771       2.24226924       6.72680771        2
N        6.72680771       0.00000000       4.48453848        2
N        4.48453848       2.24226924       4.48453848        2
N        4.48453848       0.00000000       6.72680771        2
Ta       4.48453848       0.00000000       8.96907695        1
Ta       4.48453848       2.24226924      11.21134619        1
Ti       6.72680771       0.00000000      11.21134619        1
Ti       6.72680771       2.24226924       8.96907695        1
N        6.72680771       2.24226924      11.21134619        2
N        6.72680771       0.00000000       8.96907695        2
N        4.48453848       2.24226924       8.96907695        2
N        4.48453848       0.00000000      11.21134619        2
Nb       4.48453848       4.48453848       0.00000000        1
Zr       4.48453848       6.72680771       2.24226924        1
Ti       6.72680771       4.48453848       2.24226924        1
Nb       6.72680771       6.72680771       0.00000000        1
N        6.72680771       6.72680771       2.24226924        2
N        6.72680771       4.48453848       0.00000000        2
N        4.48453848       6.72680771       0.00000000        2
N        4.48453848       4.48453848       2.24226924        2
Ti       4.48453848       4.48453848       4.48453848        1
Nb       4.48453848       6.72680771       6.72680771        1
Hf       6.72680771       4.48453848       6.72680771        1
Hf       6.72680771       6.72680771       4.48453848        1
N        6.72680771       6.72680771       6.72680771        2
N        6.72680771       4.48453848       4.48453848        2
N        4.48453848       6.72680771       4.48453848        2
N        4.48453848       4.48453848       6.72680771        2
Zr       4.48453848       4.48453848       8.96907695        1
Ti       4.48453848       6.72680771      11.21134619        1
Zr       6.72680771       4.48453848      11.21134619        1
Zr       6.72680771       6.72680771       8.96907695        1
N        6.72680771       6.72680771      11.21134619        2
N        6.72680771       4.48453848       8.96907695        2
N        4.48453848       6.72680771       8.96907695        2
N        4.48453848       4.48453848      11.21134619        2
Hf       4.48453848       8.96907695       0.00000000        1
Ti       4.48453848      11.21134619       2.24226924        1
Nb       6.72680771       8.96907695       2.24226924        1
Ta       6.72680771      11.21134619       0.00000000        1
N        6.72680771      11.21134619       2.24226924        2
N        6.72680771       8.96907695       0.00000000        2
N        4.48453848      11.21134619       0.00000000        2
N        4.48453848       8.96907695       2.24226924        2
Nb       4.48453848       8.96907695       4.48453848        1
Ti       4.48453848      11.21134619       6.72680771        1
Ti       6.72680771       8.96907695       6.72680771        1
Hf       6.72680771      11.21134619       4.48453848        1
N        6.72680771      11.21134619       6.72680771        2
N        6.72680771       8.96907695       4.48453848        2
N        4.48453848      11.21134619       4.48453848        2
N        4.48453848       8.96907695       6.72680771        2
Zr       4.48453848       8.96907695       8.96907695        1
Hf       4.48453848      11.21134619      11.21134619        1
Zr       6.72680771       8.96907695      11.21134619        1
Ti       6.72680771      11.21134619       8.96907695        1
N        6.72680771      11.21134619      11.21134619        2
N        6.72680771       8.96907695       8.96907695        2
N        4.48453848      11.21134619       8.96907695        2
N        4.48453848       8.96907695      11.21134619        2
Zr       8.96907695       0.00000000       0.00000000        1
Nb       8.96907695       2.24226924       2.24226924        1
Ti      11.21134619       0.00000000       2.24226924        1
Nb      11.21134619       2.24226924       0.00000000        1
N       11.21134619       2.24226924       2.24226924        2
N       11.21134619       0.00000000       0.00000000        2
N        8.96907695       2.24226924       0.00000000        2
N        8.96907695       0.00000000       2.24226924        2
Ta       8.96907695       0.00000000       4.48453848        1
Ta       8.96907695       2.24226924       6.72680771        1
Nb      11.21134619       0.00000000       6.72680771        1
Ti      11.21134619       2.24226924       4.48453848        1
N       11.21134619       2.24226924       6.72680771        2
N       11.21134619       0.00000000       4.48453848        2
N        8.96907695       2.24226924       4.48453848        2
N        8.96907695       0.00000000       6.72680771        2
Ta       8.96907695       0.00000000       8.96907695        1
Nb       8.96907695       2.24226924      11.21134619        1
Ti      11.21134619       0.00000000      11.21134619        1
Zr      11.21134619       2.24226924       8.96907695        1
N       11.21134619       2.24226924      11.21134619        2
N       11.21134619       0.00000000       8.96907695        2
N        8.96907695       2.24226924       8.96907695        2
N        8.96907695       0.00000000      11.21134619        2
Ti       8.96907695       4.48453848       0.00000000        1
Ti       8.96907695       6.72680771       2.24226924        1
Hf      11.21134619       4.48453848       2.24226924        1
Ti      11.21134619       6.72680771       0.00000000        1
N       11.21134619       6.72680771       2.24226924        2
N       11.21134619       4.48453848       0.00000000        2
N        8.96907695       6.72680771       0.00000000        2
N        8.96907695       4.48453848       2.24226924        2
Hf       8.96907695       4.48453848       4.48453848        1
Hf       8.96907695       6.72680771       6.72680771        1
Zr      11.21134619       4.48453848       6.72680771        1
Ti      11.21134619       6.72680771       4.48453848        1
N       11.21134619       6.72680771       6.72680771        2
N       11.21134619       4.48453848       4.48453848        2
N        8.96907695       6.72680771       4.48453848        2
N        8.96907695       4.48453848       6.72680771        2
Ti       8.96907695       4.48453848       8.96907695        1
Hf       8.96907695       6.72680771      11.21134619        1
Ta      11.21134619       4.48453848      11.21134619        1
Ta      11.21134619       6.72680771       8.96907695        1
N       11.21134619       6.72680771      11.21134619        2
N       11.21134619       4.48453848       8.96907695        2
N        8.96907695       6.72680771       8.96907695        2
N        8.96907695       4.48453848      11.21134619        2
Hf       8.96907695       8.96907695       0.00000000        1
Ti       8.96907695      11.21134619       2.24226924        1
Ta      11.21134619       8.96907695       2.24226924        1
Hf      11.21134619      11.21134619       0.00000000        1
N       11.21134619      11.21134619       2.24226924        2
N       11.21134619       8.96907695       0.00000000        2
N        8.96907695      11.21134619       0.00000000        2
N        8.96907695       8.96907695       2.24226924        2
Zr       8.96907695       8.96907695       4.48453848        1
Zr       8.96907695      11.21134619       6.72680771        1
Ti      11.21134619       8.96907695       6.72680771        1
Nb      11.21134619      11.21134619       4.48453848        1
N       11.21134619      11.21134619       6.72680771        2
N       11.21134619       8.96907695       4.48453848        2
N        8.96907695      11.21134619       4.48453848        2
N        8.96907695       8.96907695       6.72680771        2
Nb       8.96907695       8.96907695       8.96907695        1
Hf       8.96907695      11.21134619      11.21134619        1
Ta      11.21134619       8.96907695      11.21134619        1
Nb      11.21134619      11.21134619       8.96907695        1
N       11.21134619      11.21134619      11.21134619        2
N       11.21134619       8.96907695       8.96907695        2
N        8.96907695      11.21134619       8.96907695        2
N        8.96907695       8.96907695      11.21134619        2
216
Lattice="13.453615425789224 0.0 0.0 0.0 13.453615425789224 0.0 0.0 0.0 13.453615425789224" Properties=species:S:1:pos:R:3:tags:I:1 sqs_abs_alpha=0.09935233597571258 energy=-2238.056645593425 mc_step=500 energy_method=uma rosenbluth_W_new=6.7124747560433375 rosenbluth_W_old=7.015402595628281 pbc="T T T"
Nb       0.00000000       0.00000000       0.00000000        1
Hf       0.00000000       2.24226924       2.24226924        1
Ti       2.24226924       0.00000000       2.24226924        1
Ti       2.24226924       2.24226924       0.00000000        1
N        2.24226924       2.24226924       2.24226924        2
N        2.24226924       0.00000000       0.00000000        2
N        0.00000000       2.24226924       0.00000000        2
N        0.00000000       0.00000000       2.24226924        2
Ta       0.00000000       0.00000000       4.48453848        1
Zr       0.00000000       2.24226924       6.72680771        1
Ta       2.24226924       0.00000000       6.72680771        1
Zr       2.24226924       2.24226924       4.48453848        1
N        2.24226924       2.24226924       6.72680771        2
N        2.24226924       0.00000000       4.48453848        2
N        0.00000000       2.24226924       4.48453848        2
N        0.00000000       0.00000000       6.72680771        2
Ta       0.00000000       0.00000000       8.96907695        1
Ta       0.00000000       2.24226924      11.21134619        1
Nb       2.24226924       0.00000000      11.21134619        1
Zr       2.24226924       2.24226924       8.96907695        1
N        2.24226924       2.24226924      11.21134619        2
N        2.24226924       0.00000000       8.96907695        2
N        0.00000000       2.24226924       8.96907695        2
N        0.00000000       0.00000000      11.21134619        2
Hf       0.00000000       4.48453848       0.00000000        1
Ti       0.00000000       6.72680771       2.24226924        1
Ta       2.24226924       4.48453848       2.24226924        1
Nb       2.24226924       6.72680771       0.00000000        1
N        2.24226924       6.72680771       2.24226924        2
N        2.24226924       4.48453848       0.00000000        2
N        0.00000000       6.72680771       0.00000000        2
N        0.00000000       4.48453848       2.24226924        2
Ta       0.00000000       4.48453848       4.48453848        1
Zr       0.00000000       6.72680771       6.72680771        1
Nb       2.24226924       4.48453848       6.72680771        1
Hf       2.24226924       6.72680771       4.48453848        1
N        2.24226924       6.72680771       6.72680771        2
N        2.24226924       4.48453848       4.48453848        2
N        0.00000000       6.72680771       4.48453848        2
N        0.00000000       4.48453848       6.72680771        2
Zr       0.00000000       4.48453848       8.96907695        1
Nb       0.00000000       6.72680771      11.21134619        1
Ti       2.24226924       4.48453848      11.21134619        1
Nb       2.24226924       6.72680771       8.96907695        1
N        2.24226924       6.72680771      11.21134619        2
N        2.24226924       4.48453848       8.96907695        2
N        0.00000000       6.72680771       8.96907695        2
N        0.00000000       4.48453848      11.21134619        2
Nb       0.00000000       8.96907695       0.00000000        1
Ta       0.00000000      11.21134619       2.24226924        1
Ta       2.24226924       8.96907695       2.24226924        1
Zr       2.24226924      11.21134619       0.00000000        1
N        2.24226924      11.21134619       2.24226924        2
N        2.24226924       8.96907695       0.00000000        2
N        0.00000000      11.21134619       0.00000000        2
N        0.00000000       8.96907695       2.24226924        2
Nb       0.00000000       8.96907695       4.48453848        1
Zr       0.00000000      11.21134619       6.72680771        1
Zr       2.24226924       8.96907695       6.72680771        1
Ta       2.24226924      11.21134619       4.48453848        1
N        2.24226924      11.21134619       6.72680771        2
N        2.24226924       8.96907695       4.48453848        2
N        0.00000000      11.21134619       4.48453848        2
N        0.00000000       8.96907695       6.72680771        2
Zr       0.00000000       8.96907695       8.96907695        1
Hf       0.00000000      11.21134619      11.21134619        1
Nb       2.24226924       8.96907695      11.21134619        1
Hf       2.24226924      11.21134619       8.96907695        1
N        2.24226924      11.21134619      11.21134619        2
N        2.24226924       8.96907695       8.96907695        2
N        0.00000000      11.21134619       8.96907695        2
N        0.00000000       8.96907695      11.21134619        2
Hf       4.48453848       0.00000000       0.00000000        1
Nb       4.48453848       2.24226924       2.24226924        1
Ta       6.72680771       0.00000000       2.24226924        1
Zr       6.72680771       2.24226924       0.00000000        1
N        6.72680771       2.24226924       2.24226924        2
N        6.72680771       0.00000000       0.00000000        2
N        4.48453848       2.24226924       0.00000000        2
N        4.48453848       0.00000000       2.24226924        2
Nb       4.48453848       0.00000000       4.48453848        1
Zr       4.48453848       2.24226924       6.72680771        1
Nb       6.72680771       0.00000000       6.72680771        1
Ti       6.72680771       2.24226924       4.48453848        1
N        6.72680771       2.24226924       6.72680771        2
N        6.72680771       0.00000000       4.48453848        2
N        4.48453848       2.24226924       4.48453848        2
N        4.48453848       0.00000000       6.72680771        2
Zr       4.48453848       0.00000000       8.96907695        1
Ta       4.48453848       2.24226924      11.21134619        1
Ti       6.72680771       0.00000000      11.21134619        1
Ti       6.72680771       2.24226924       8.96907695        1
N        6.72680771       2.24226924      11.21134619        2
N        6.72680771       0.00000000       8.96907695        2
N        4.48453848       2.24226924       8.96907695        2
N        4.48453848       0.00000000      11.21134619        2
Hf       4.48453848       4.48453848       0.00000000        1
Zr       4.48453848       6.72680771       2.24226924        1
Ti       6.72680771       4.48453848       2.24226924        1
Hf       6.72680771       6.72680771       0.00000000        1
N        6.72680771       6.72680771       2.24226924        2
N        6.72680771       4.48453848       0.00000000        2
N        4.48453848       6.72680771       0.00000000        2
N        4.48453848       4.48453848       2.24226924        2
Zr       4.48453848       4.48453848       4.48453848        1
Ti       4.48453848       6.72680771       6.72680771        1
Hf       6.72680771       4.48453848       6.72680771        1
Nb       6.72680771       6.72680771       4.48453848        1
N        6.72680771       6.72680771       6.72680771        2
N        6.72680771       4.48453848       4.48453848        2
N        4.48453848       6.72680771       4.48453848        2
N        4.48453848       4.48453848       6.72680771        2
Nb       4.48453848       4.48453848       8.96907695        1
Ti       4.48453848       6.72680771      11.21134619        1
Ta       6.72680771       4.48453848      11.21134619        1
Zr       6.72680771       6.72680771       8.96907695        1
N        6.72680771       6.72680771      11.21134619        2
N        6.72680771       4.48453848       8.96907695        2
N        4.48453848       6.72680771       8.96907695        2
N        4.48453848       4.48453848      11.21134619        2
Hf       4.48453848       8.96907695       0.00000000        1
Ti       4.48453848      11.21134619       2.24226924        1
Ta       6.72680771       8.96907695       2.24226924        1
Ta       6.72680771      11.21134619       0.00000000        1
N        6.72680771      11.21134619       2.24226924        2
N        6.72680771       8.96907695       0.00000000        2
N        4.48453848      11.21134619       0.00000000        2
N        4.48453848       8.96907695       2.24226924        2
Hf       4.48453848       8.96907695       4.48453848        1
Ti       4.48453848      11.21134619       6.72680771        1
Hf       6.72680771       8.96907695       6.72680771        1
Hf       6.72680771      11.21134619       4.48453848        1
N        6.72680771      11.21134619       6.72680771        2
N        6.72680771       8.96907695       4.48453848        2
N        4.48453848      11.21134619       4.48453848        2
N        4.48453848       8.96907695       6.72680771        2
Nb       4.48453848       8.96907695       8.96907695        1
Hf       4.48453848      11.21134619      11.21134619        1
Nb       6.72680771       8.96907695      11.21134619        1
Ti       6.72680771      11.21134619       8.96907695        1
N        6.72680771      11.21134619      11.21134619        2
N        6.72680771       8.96907695       8.96907695        2
N        4.48453848      11.21134619       8.96907695        2
N        4.48453848       8.96907695      11.21134619        2
Zr       8.96907695       0.00000000       0.00000000        1
Zr       8.96907695       2.24226924       2.24226924        1
Ti      11.21134619       0.00000000       2.24226924        1
Nb      11.21134619       2.24226924       0.00000000        1
N       11.21134619       2.24226924       2.24226924        2
N       11.21134619       0.00000000       0.00000000        2
N        8.96907695       2.24226924       0.00000000        2
N        8.96907695       0.00000000       2.24226924        2
Ta       8.96907695       0.00000000       4.48453848        1
Ta       8.96907695       2.24226924       6.72680771        1
Zr      11.21134619       0.00000000       6.72680771        1
Ti      11.21134619       2.24226924       4.48453848        1
N       11.21134619       2.24226924       6.72680771        2
N       11.21134619       0.00000000       4.48453848        2
N        8.96907695       2.24226924       4.48453848        2
N        8.96907695       0.00000000       6.72680771        2
Nb       8.96907695       0.00000000       8.96907695        1
Ta       8.96907695       2.24226924      11.21134619        1
Ta      11.21134619       0.00000000      11.21134619        1
Hf      11.21134619       2.24226924       8.96907695        1
N       11.21134619       2.24226924      11.21134619        2
N       11.21134619       0.00000000       8.96907695        2
N        8.96907695       2.24226924       8.96907695        2
N        8.96907695       0.00000000      11.21134619        2
Zr       8.96907695       4.48453848       0.00000000        1
Ta       8.96907695       6.72680771       2.24226924        1
Ti      11.21134619       4.48453848       2.24226924        1
Ti      11.21134619       6.72680771       0.00000000        1
N       11.21134619       6.72680771       2.24226924        2
N       11.21134619       4.48453848       0.00000000        2
N        8.96907695       6.72680771       0.00000000        2
N        8.96907695       4.48453848       2.24226924        2
Hf       8.96907695       4.48453848       4.48453848        1
Hf       8.96907695       6.72680771       6.72680771        1
Nb      11.21134619       4.48453848       6.72680771        1
Ti      11.21134619       6.72680771       4.48453848        1
N       11.21134619       6.72680771       6.72680771        2
N       11.21134619       4.48453848       4.48453848        2
N        8.96907695       6.72680771       4.48453848        2
N        8.96907695       4.48453848       6.72680771        2
Ti       8.96907695       4.48453848       8.96907695        1
Zr       8.96907695       6.72680771      11.21134619        1
Hf      11.21134619       4.48453848      11.21134619        1
Zr      11.21134619       6.72680771       8.96907695        1
N       11.21134619       6.72680771      11.21134619        2
N       11.21134619       4.48453848       8.96907695        2
N        8.96907695       6.72680771       8.96907695        2
N        8.96907695       4.48453848      11.21134619        2
Hf       8.96907695       8.96907695       0.00000000        1
Zr       8.96907695      11.21134619       2.24226924        1
Ta      11.21134619       8.96907695       2.24226924        1
Hf      11.21134619      11.21134619       0.00000000        1
N       11.21134619      11.21134619       2.24226924        2
N       11.21134619       8.96907695       0.00000000        2
N        8.96907695      11.21134619       0.00000000        2
N        8.96907695       8.96907695       2.24226924        2
Hf       8.96907695       8.96907695       4.48453848        1
Hf       8.96907695      11.21134619       6.72680771        1
Ti      11.21134619       8.96907695       6.72680771        1
Ti      11.21134619      11.21134619       4.48453848        1
N       11.21134619      11.21134619       6.72680771        2
N       11.21134619       8.96907695       4.48453848        2
N        8.96907695      11.21134619       4.48453848        2
N        8.96907695       8.96907695       6.72680771        2
Nb       8.96907695       8.96907695       8.96907695        1
Nb       8.96907695      11.21134619      11.21134619        1
Ta      11.21134619       8.96907695      11.21134619        1
Ti      11.21134619      11.21134619       8.96907695        1
N       11.21134619      11.21134619      11.21134619        2
N       11.21134619       8.96907695       8.96907695        2
N        8.96907695      11.21134619       8.96907695        2
N        8.96907695       8.96907695      11.21134619        2
