216
Lattice="13.453615425789224 0.0 0.0 0.0 13.453615425789224 0.0 0.0 0.0 13.453615425789224" Properties=species:S:1:pos:R:3:tags:I:1 sqs_abs_alpha=0.08024624725923425 energy=-2237.7904737712925 mc_step=100 energy_method=uma rosenbluth_W_new=3.4852840172950943 rosenbluth_W_old=5.742617976797366 pbc="T T T"
Ta       0.00000000       0.00000000       0.00000000        1
Zr       0.00000000       2.24226924       2.24226924        1
Zr       2.24226924       0.00000000       2.24226924        1
Zr       2.24226924       2.24226924       0.00000000        1
N        2.24226924       2.24226924       2.24226924        2
N        2.24226924       0.00000000       0.00000000        2
N        0.00000000       2.24226924       0.00000000        2
N        0.00000000       0.00000000       2.24226924        2
Zr       0.00000000       0.00000000       4.48453848        1
Ti       0.00000000       2.24226924       6.72680771        1
Zr       2.24226924       0.00000000       6.72680771        1
Nb       2.24226924       2.24226924       4.48453848        1
N        2.24226924       2.24226924       6.72680771        2
N        2.24226924       0.00000000       4.48453848        2
N        0.00000000       2.24226924       4.48453848        2
N        0.00000000       0.00000000       6.72680771        2
Hf       0.00000000       0.00000000       8.96907695        1
Zr       0.00000000       2.24226924      11.21134619        1
Ta       2.24226924       0.00000000      11.21134619        1
Nb       2.24226924       2.24226924       8.96907695        1
N        2.24226924       2.24226924      11.21134619        2
N        2.24226924       0.00000000       8.96907695        2
N        0.00000000       2.24226924       8.96907695        2
N        0.00000000       0.00000000      11.21134619        2
Ti       0.00000000       4.48453848       0.00000000        1
Zr       0.00000000       6.72680771       2.24226924        1
Nb       2.24226924       4.48453848       2.24226924        1
Hf       2.24226924       6.72680771       0.00000000        1
N        2.24226924       6.72680771       2.24226924        2
N        2.24226924       4.48453848       0.00000000        2
N        0.00000000       6.72680771       0.00000000        2
N        0.00000000       4.48453848       2.24226924        2
Zr       0.00000000       4.48453848       4.48453848        1
Ti       0.00000000       6.72680771       6.72680771        1
Zr       2.24226924       4.48453848       6.72680771        1
Ti       2.24226924       6.72680771       4.48453848        1
N        2.24226924       6.72680771       6.72680771        2
N        2.24226924       4.48453848       4.48453848        2
N        0.00000000       6.72680771       4.48453848        2
N        0.00000000       4.48453848       6.72680771        2
Zr       0.00000000       4.48453848       8.96907695        1
Hf       0.00000000       6.72680771      11.21134619        1
Hf       2.24226924       4.48453848      11.21134619        1
Nb       2.24226924       6.72680771       8.96907695        1
N        2.24226924       6.72680771      11.21134619        2
N        2.24226924       4.48453848       8.96907695        2
N        0.00000000       6.72680771       8.96907695        2
N        0.00000000       4.48453848      11.21134619        2
Ta       0.00000000       8.96907695       0.00000000        1
Ta       0.00000000      11.21134619       2.24226924        1
Hf       2.24226924       8.96907695       2.24226924        1
Hf       2.24226924      11.21134619       0.00000000        1
N        2.24226924      11.21134619       2.24226924        2
N        2.24226924       8.96907695       0.00000000        2
N        0.00000000      11.21134619       0.00000000        2
N        0.00000000       8.96907695       2.24226924        2
Zr       0.00000000       8.96907695       4.48453848        1
Zr       0.00000000      11.21134619       6.72680771        1
Nb       2.24226924       8.96907695       6.72680771        1
Nb       2.24226924      11.21134619       4.48453848        1
N        2.24226924      11.21134619       6.72680771        2
N        2.24226924       8.96907695       4.48453848        2
N        0.00000000      11.21134619       4.48453848        2
N        0.00000000       8.96907695       6.72680771        2
Ti       0.00000000       8.96907695       8.96907695        1
Zr       0.00000000      11.21134619      11.21134619        1
Ti       2.24226924       8.96907695      11.21134619        1
Ti       2.24226924      11.21134619       8.96907695        1
N        2.24226924      11.21134619      11.21134619        2
N        2.24226924       8.96907695       8.96907695        2
N        0.00000000      11.21134619       8.96907695        2
N        0.00000000       8.96907695      11.21134619        2
Nb       4.48453848       0.00000000       0.00000000        1
Hf       4.48453848       2.24226924       2.24226924        1
Nb       6.72680771       0.00000000       2.24226924        1
Ta       6.72680771       2.24226924       0.00000000        1
N        6.72680771       2.24226924       2.24226924        2
N        6.72680771       0.00000000       0.00000000        2
N        4.48453848       2.24226924       0.00000000        2
N        4.48453848       0.00000000       2.24226924        2
Ta       4.48453848       0.00000000       4.48453848        1
Ta       4.48453848       2.24226924       6.72680771        1
Hf       6.72680771       0.00000000       6.72680771        1
Ti       6.72680771       2.24226924       4.48453848        1
N        6.72680771       2.24226924       6.72680771        2
N        6.72680771       0.00000000       4.48453848        2
N        4.48453848       2.24226924       4.48453848        2
N        4.48453848       0.00000000       6.72680771        2
Ti       4.48453848       0.00000000       8.96907695        1
Zr       4.48453848       2.24226924      11.21134619        1
Ti       6.72680771       0.00000000      11.21134619        1
Ta       6.72680771       2.24226924       8.96907695        1
N        6.72680771       2.24226924      11.21134619        2
N        6.72680771       0.00000000       8.96907695        2
N        4.48453848       2.24226924       8.96907695        2
N        4.48453848       0.00000000      11.21134619        2
Hf       4.48453848       4.48453848       0.00000000        1
Ta       4.48453848       6.72680771       2.24226924        1
Nb       6.72680771       4.48453848       2.24226924        1
Nb       6.72680771       6.72680771       0.00000000        1
N        6.72680771       6.72680771       2.24226924        2
N        6.72680771       4.48453848       0.00000000        2
N        4.48453848       6.72680771       0.00000000        2
N        4.48453848       4.48453848       2.24226924        2
Ta       4.48453848       4.48453848       4.48453848        1
Hf       4.48453848       6.72680771       6.72680771        1
Ti       6.72680771       4.48453848       6.72680771        1
Ti       6.72680771       6.72680771       4.48453848        1
N        6.72680771       6.72680771       6.72680771        2
N        6.72680771       4.48453848       4.48453848        2
N        4.48453848       6.72680771       4.48453848        2
N        4.48453848       4.48453848       6.72680771        2
Zr       4.48453848       4.48453848       8.96907695        1
Ti       4.48453848       6.72680771      11.21134619        1
Hf       6.72680771       4.48453848      11.21134619        1
Ta       6.72680771       6.72680771       8.96907695        1
N        6.72680771       6.72680771      11.21134619        2
N        6.72680771       4.48453848       8.96907695        2
N        4.48453848       6.72680771       8.96907695        2
N        4.48453848       4.48453848      11.21134619        2
Ta       4.48453848       8.96907695       0.00000000        1
Ti       4.48453848      11.21134619       2.24226924        1
Ti       6.72680771       8.96907695       2.24226924        1
Hf       6.72680771      11.21134619       0.00000000        1
N        6.72680771      11.21134619       2.24226924        2
N        6.72680771       8.96907695       0.00000000        2
N        4.48453848      11.21134619       0.00000000        2
N        4.48453848       8.96907695       2.24226924        2
Hf       4.48453848       8.96907695       4.48453848        1
Zr       4.48453848      11.21134619       6.72680771        1
Zr       6.72680771       8.96907695       6.72680771        1
Hf       6.72680771      11.21134619       4.48453848        1
N        6.72680771      11.21134619       6.72680771        2
N        6.72680771       8.96907695       4.48453848        2
N        4.48453848      11.21134619       4.48453848        2
N        4.48453848       8.96907695       6.72680771        2
Nb       4.48453848       8.96907695       8.96907695        1
Ti       4.48453848      11.21134619      11.21134619        1
Nb       6.72680771       8.96907695      11.21134619        1
Hf       6.72680771      11.21134619       8.96907695        1
N        6.72680771      11.21134619      11.21134619        2
N        6.72680771       8.96907695       8.96907695        2
N        4.48453848      11.21134619       8.96907695        2
N        4.48453848       8.96907695      11.21134619        2
Hf       8.96907695       0.00000000       0.00000000        1
Hf       8.96907695       2.24226924       2.24226924        1
Nb      11.21134619       0.00000000       2.24226924        1
Nb      11.21134619       2.24226924       0.00000000        1
N       11.21134619       2.24226924       2.24226924        2
N       11.21134619       0.00000000       0.00000000        2
N        8.96907695       2.24226924       0.00000000        2
N        8.96907695       0.00000000       2.24226924        2
Hf       8.96907695       0.00000000       4.48453848        1
Nb       8.96907695       2.24226924       6.72680771        1
Zr      11.21134619       0.00000000       6.72680771        1
Ta      11.21134619       2.24226924       4.48453848        1
N       11.21134619       2.24226924       6.72680771        2
N       11.21134619       0.00000000       4.48453848        2
N        8.96907695       2.24226924       4.48453848        2
N        8.96907695       0.00000000       6.72680771        2
Ta       8.96907695       0.00000000       8.96907695        1
Ta       8.96907695       2.24226924      11.21134619        1
Ta      11.21134619       0.00000000      11.21134619        1
Ta      11.21134619       2.24226924       8.96907695        1
N       11.21134619       2.24226924      11.21134619        2
N       11.21134619       0.00000000       8.96907695        2
N        8.96907695       2.24226924       8.96907695        2
N        8.96907695       0.00000000      11.21134619        2
Ti       8.96907695       4.48453848       0.00000000        1
Hf       8.96907695       6.72680771       2.24226924        1
Hf      11.21134619       4.48453848       2.24226924        1
Zr      11.21134619       6.72680771       0.00000000        1
N       11.21134619       6.72680771       2.24226924        2
N       11.21134619       4.48453848       0.00000000        2
N        8.96907695       6.72680771       0.00000000        2
N        8.96907695       4.48453848       2.24226924        2
Hf       8.96907695       4.48453848       4.48453848        1
Ta       8.96907695       6.72680771       6.72680771        1
Nb      11.21134619       4.48453848       6.72680771        1
Ti      11.21134619       6.72680771       4.48453848        1
N       11.21134619       6.72680771       6.72680771        2
N       11.21134619       4.48453848       4.48453848        2
N        8.96907695       6.72680771       4.48453848        2
N        8.96907695       4.48453848       6.72680771        2
Nb       8.96907695       4.48453848       8.96907695        1
Ta       8.96907695       6.72680771      11.21134619        1
Ti      11.21134619       4.48453848      11.21134619        1
Zr      11.21134619       6.72680771       8.96907695        1
N       11.21134619       6.72680771      11.21134619        2
N       11.21134619       4.48453848       8.96907695        2
N        8.96907695       6.72680771       8.96907695        2
N        8.96907695       4.48453848      11.21134619        2
Ti       8.96907695       8.96907695       0.00000000        1
Nb       8.96907695      11.21134619       2.24226924        1
Zr      11.21134619       8.96907695       2.24226924        1
Ta      11.21134619      11.21134619       0.00000000        1
N       11.21134619      11.21134619       2.24226924        2
N       11.21134619       8.96907695       0.00000000        2
N        8.96907695      11.21134619       0.00000000        2
N        8.96907695       8.96907695       2.24226924        2
Nb       8.96907695       8.96907695       4.48453848        1
Nb       8.96907695      11.21134619       6.72680771        1
Nb      11.21134619       8.96907695       6.72680771        1
Ti      11.21134619      11.21134619       4.48453848        1
N       11.21134619      11.21134619       6.72680771        2
N       11.21134619       8.96907695       4.48453848        2
N        8.96907695      11.21134619       4.48453848        2
N        8.96907695       8.96907695       6.72680771        2
Ti       8.96907695       8.96907695       8.96907695        1
Zr       8.96907695      11.21134619      11.21134619        1
Ta      11.21134619       8.96907695      11.21134619        1
Hf      11.21134619      11.21134619       8.96907695        1
N       11.21134619      11.21134619      11.21134619        2
N       11.21134619       8.96907695       8.96907695        2
N        8.96907695      11.21134619       8.96907695        2
N        8.96907695       8.96907695      11.21134619        2
216
Lattice="13.453615425789224 0.0 0.0 0.0 13.453615425789224 0.0 0.0 0.0 13.453615425789224" Properties=species:S:1:pos:R:3:tags:I:1 sqs_abs_alpha=0.10832180806206783 energy=-2238.2580422767887 mc_step=150 energy_method=uma rosenbluth_W_new=4.835746392954166 rosenbluth_W_old=4.809742195589269 pbc="T T T"
Zr       0.00000000       0.00000000       0.00000000        1
Nb       0.00000000       2.24226924       2.24226924        1
Ti       2.24226924       0.00000000       2.24226924        1
Ta       2.24226924       2.24226924       0.00000000        1
N        2.24226924       2.24226924       2.24226924        2
N        2.24226924       0.00000000       0.00000000        2
N        0.00000000       2.24226924       0.00000000        2
N        0.00000000       0.00000000       2.24226924        2
Zr       0.00000000       0.00000000       4.48453848        1
Ti       0.00000000       2.24226924       6.72680771        1
Zr       2.24226924       0.00000000       6.72680771        1
Nb       2.24226924       2.24226924       4.48453848        1
N        2.24226924       2.24226924       6.72680771        2
N        2.24226924       0.00000000       4.48453848        2
N        0.00000000       2.24226924       4.48453848        2
N        0.00000000       0.00000000       6.72680771        2
Hf       0.00000000       0.00000000       8.96907695        1
Zr       0.00000000       2.24226924      11.21134619        1
Hf       2.24226924       0.00000000      11.21134619        1
Hf       2.24226924       2.24226924       8.96907695        1
N        2.24226924       2.24226924      11.21134619        2
N        2.24226924       0.00000000       8.96907695        2
N        0.00000000       2.24226924       8.96907695        2
N        0.00000000       0.00000000      11.21134619        2
Ta       0.00000000       4.48453848       0.00000000        1
Zr       0.00000000       6.72680771       2.24226924        1
Ti       2.24226924       4.48453848       2.24226924        1
Hf       2.24226924       6.72680771       0.00000000        1
N        2.24226924       6.72680771       2.24226924        2
N        2.24226924       4.48453848       0.00000000        2
N        0.00000000       6.72680771       0.00000000        2
N        0.00000000       4.48453848       2.24226924        2
Zr       0.00000000       4.48453848       4.48453848        1
Ta       0.00000000       6.72680771       6.72680771        1
Zr       2.24226924       4.48453848       6.72680771        1
Nb       2.24226924       6.72680771       4.48453848        1
N        2.24226924       6.72680771       6.72680771        2
N        2.24226924       4.48453848       4.48453848        2
N        0.00000000       6.72680771       4.48453848        2
N        0.00000000       4.48453848       6.72680771        2
Zr       0.00000000       4.48453848       8.96907695        1
Hf       0.00000000       6.72680771      11.21134619        1
Nb       2.24226924       4.48453848      11.21134619        1
Nb       2.24226924       6.72680771       8.96907695        1
N        2.24226924       6.72680771      11.21134619        2
N        2.24226924       4.48453848       8.96907695        2
N        0.00000000       6.72680771       8.96907695        2
N        0.00000000       4.48453848      11.21134619        2
Ta       0.00000000       8.96907695       0.00000000        1
Ta       0.00000000      11.21134619       2.24226924        1
Hf       2.24226924       8.96907695       2.24226924        1
Ti       2.24226924      11.21134619       0.00000000        1
N        2.24226924      11.21134619       2.24226924        2
N        2.24226924       8.96907695       0.00000000        2
N        0.00000000      11.21134619       0.00000000        2
N        0.00000000       8.96907695       2.24226924        2
Hf       0.00000000       8.96907695       4.48453848        1
Ti       0.00000000      11.21134619       6.72680771        1
Nb       2.24226924       8.96907695       6.72680771        1
Nb       2.24226924      11.21134619       4.48453848        1
N        2.24226924      11.21134619       6.72680771        2
N        2.24226924       8.96907695       4.48453848        2
N        0.00000000      11.21134619       4.48453848        2
N        0.00000000       8.96907695       6.72680771        2
Ti       0.00000000       8.96907695       8.96907695        1
Ta       0.00000000      11.21134619      11.21134619        1
Zr       2.24226924       8.96907695      11.21134619        1
Ti       2.24226924      11.21134619       8.96907695        1
N        2.24226924      11.21134619      11.21134619        2
N        2.24226924       8.96907695       8.96907695        2
N        0.00000000      11.21134619       8.96907695        2
N        0.00000000       8.96907695      11.21134619        2
Ta       4.48453848       0.00000000       0.00000000        1
Hf       4.48453848       2.24226924       2.24226924        1
Ti       6.72680771       0.00000000       2.24226924        1
Nb       6.72680771       2.24226924       0.00000000        1
N        6.72680771       2.24226924       2.24226924        2
N        6.72680771       0.00000000       0.00000000        2
N        4.48453848       2.24226924       0.00000000        2
N        4.48453848       0.00000000       2.24226924        2
Ta       4.48453848       0.00000000       4.48453848        1
Ta       4.48453848       2.24226924       6.72680771        1
Ta       6.72680771       0.00000000       6.72680771        1
Ti       6.72680771       2.24226924       4.48453848        1
N        6.72680771       2.24226924       6.72680771        2
N        6.72680771       0.00000000       4.48453848        2
N        4.48453848       2.24226924       4.48453848        2
N        4.48453848       0.00000000       6.72680771        2
Ti       4.48453848       0.00000000       8.96907695        1
Zr       4.48453848       2.24226924      11.21134619        1
Nb       6.72680771       0.00000000      11.21134619        1
Ta       6.72680771       2.24226924       8.96907695        1
N        6.72680771       2.24226924      11.21134619        2
N        6.72680771       0.00000000       8.96907695        2
N        4.48453848       2.24226924       8.96907695        2
N        4.48453848       0.00000000      11.21134619        2
Hf       4.48453848       4.48453848       0.00000000        1
Ta       4.48453848       6.72680771       2.24226924        1
Ti       6.72680771       4.48453848       2.24226924        1
Zr       6.72680771       6.72680771       0.00000000        1
N        6.72680771       6.72680771       2.24226924        2
N        6.72680771       4.48453848       0.00000000        2
N        4.48453848       6.72680771       0.00000000        2
N        4.48453848       4.48453848       2.24226924        2
Zr       4.48453848       4.48453848       4.48453848        1
Hf       4.48453848       6.72680771       6.72680771        1
Zr       6.72680771       4.48453848       6.72680771        1
Ti       6.72680771       6.72680771       4.48453848        1
N        6.72680771       6.72680771       6.72680771        2
N        6.72680771       4.48453848       4.48453848        2
N        4.48453848       6.72680771       4.48453848        2
N        4.48453848       4.48453848       6.72680771        2
Zr       4.48453848       4.48453848       8.96907695        1
Nb       4.48453848       6.72680771      11.21134619        1
Hf       6.72680771       4.48453848      11.21134619        1
Ti       6.72680771       6.72680771       8.96907695        1
N        6.72680771       6.72680771      11.21134619        2
N        6.72680771       4.48453848       8.96907695        2
N        4.48453848       6.72680771       8.96907695        2
N        4.48453848       4.48453848      11.21134619        2
Hf       4.48453848       8.96907695       0.00000000        1
Zr       4.48453848      11.21134619       2.24226924        1
Ti       6.72680771       8.96907695       2.24226924        1
Hf       6.72680771      11.21134619       0.00000000        1
N        6.72680771      11.21134619       2.24226924        2
N        6.72680771       8.96907695       0.00000000        2
N        4.48453848      11.21134619       0.00000000        2
N        4.48453848       8.96907695       2.24226924        2
Ta       4.48453848       8.96907695       4.48453848        1
Zr       4.48453848      11.21134619       6.72680771        1
Nb       6.72680771       8.96907695       6.72680771        1
Hf       6.72680771      11.21134619       4.48453848        1
N        6.72680771      11.21134619       6.72680771        2
N        6.72680771       8.96907695       4.48453848        2
N        4.48453848      11.21134619       4.48453848        2
N        4.48453848       8.96907695       6.72680771        2
Ta       4.48453848       8.96907695       8.96907695        1
Ta       4.48453848      11.21134619      11.21134619        1
Nb       6.72680771       8.96907695      11.21134619        1
Hf       6.72680771      11.21134619       8.96907695        1
N        6.72680771      11.21134619      11.21134619        2
N        6.72680771       8.96907695       8.96907695        2
N        4.48453848      11.21134619       8.96907695        2
N        4.48453848       8.96907695      11.21134619        2
Ti       8.96907695       0.00000000       0.00000000        1
Hf       8.96907695       2.24226924       2.24226924        1
Ti      11.21134619       0.00000000       2.24226924        1
Nb      11.21134619       2.24226924       0.00000000        1
N       11.21134619       2.24226924       2.24226924        2
N       11.21134619       0.00000000       0.00000000        2
N        8.96907695       2.24226924       0.00000000        2
N        8.96907695       0.00000000       2.24226924        2
Hf       8.96907695       0.00000000       4.48453848        1
Zr       8.96907695       2.24226924       6.72680771        1
Nb      11.21134619       0.00000000       6.72680771        1
Ti      11.21134619       2.24226924       4.48453848        1
N       11.21134619       2.24226924       6.72680771        2
N       11.21134619       0.00000000       4.48453848        2
N        8.96907695       2.24226924       4.48453848        2
N        8.96907695       0.00000000       6.72680771        2
Nb       8.96907695       0.00000000       8.96907695        1
Ta       8.96907695       2.24226924      11.21134619        1
Ti      11.21134619       0.00000000      11.21134619        1
Nb      11.21134619       2.24226924       8.96907695        1
N       11.21134619       2.24226924      11.21134619        2
N       11.21134619       0.00000000       8.96907695        2
N        8.96907695       2.24226924       8.96907695        2
N        8.96907695       0.00000000      11.21134619        2
Hf       8.96907695       4.48453848       0.00000000        1
Hf       8.96907695       6.72680771       2.24226924        1
Hf      11.21134619       4.48453848       2.24226924        1
Nb      11.21134619       6.72680771       0.00000000        1
N       11.21134619       6.72680771       2.24226924        2
N       11.21134619       4.48453848       0.00000000        2
N        8.96907695       6.72680771       0.00000000        2
N        8.96907695       4.48453848       2.24226924        2
Ti       8.96907695       4.48453848       4.48453848        1
Zr       8.96907695       6.72680771       6.72680771        1
Hf      11.21134619       4.48453848       6.72680771        1
Ti      11.21134619       6.72680771       4.48453848        1
N       11.21134619       6.72680771       6.72680771        2
N       11.21134619       4.48453848       4.48453848        2
N        8.96907695       6.72680771       4.48453848        2
N        8.96907695       4.48453848       6.72680771        2
Nb       8.96907695       4.48453848       8.96907695        1
Ta       8.96907695       6.72680771      11.21134619        1
Ta      11.21134619       4.48453848      11.21134619        1
Zr      11.21134619       6.72680771       8.96907695        1
N       11.21134619       6.72680771      11.21134619        2
N       11.21134619       4.48453848       8.96907695        2
N        8.96907695       6.72680771       8.96907695        2
N        8.96907695       4.48453848      11.21134619        2
Ti       8.96907695       8.96907695       0.00000000        1
Nb       8.96907695      11.21134619       2.24226924        1
Zr      11.21134619       8.96907695       2.24226924        1
Zr      11.21134619      11.21134619       0.00000000        1
N       11.21134619      11.21134619       2.24226924        2
N       11.21134619       8.96907695       0.00000000        2
N        8.96907695      11.21134619       0.00000000        2
N        8.96907695       8.96907695       2.24226924        2
Nb       8.96907695       8.96907695       4.48453848        1
Nb       8.96907695      11.21134619       6.72680771        1
Ta      11.21134619       8.96907695       6.72680771        1
Ta      11.21134619      11.21134619       4.48453848        1
N       11.21134619      11.21134619       6.72680771        2
N       11.21134619       8.96907695       4.48453848        2
N        8.96907695      11.21134619       4.48453848        2
N        8.96907695       8.96907695       6.72680771        2
Ti       8.96907695       8.96907695       8.96907695        1
Zr       8.96907695      11.21134619      11.21134619        1
Ta      11.21134619       8.96907695      11.21134619        1
Hf      11.21134619      11.21134619       8.96907695        1
N       11.21134619      11.21134619      11.21134619        2
N       11.21134619       8.96907695       8.96907695        2
N        8.96907695      11.21134619       8.96907695        2
N        8.96907695       8.96907695      11.21134619        2
216
Lattice="13.453615425789224 0.0 0.0 0.0 13.453615425789224 0.0 0.0 0.0 13.453615425789224" Properties=species:S:1:pos:R:3:tags:I:1 sqs_abs_alpha=0.07616124135604654 energy=-2238.1854314862917 mc_step=200 energy_method=uma rosenbluth_W_new=3.7843763700454693 rosenbluth_W_old=5.1938381921908885 pbc="T T T"
Zr       0.00000000       0.00000000       0.00000000        1
Nb       0.00000000       2.24226924       2.24226924        1
Ti       2.24226924       0.00000000       2.24226924        1
Hf       2.24226924       2.24226924       0.00000000        1
N        2.24226924       2.24226924       2.24226924        2
N        2.24226924       0.00000000       0.00000000        2
N        0.00000000       2.24226924       0.00000000        2
N        0.00000000       0.00000000       2.24226924        2
Nb       0.00000000       0.00000000       4.48453848        1
Ti       0.00000000       2.24226924       6.72680771        1
Hf       2.24226924       0.00000000       6.72680771        1
Hf       2.24226924       2.24226924       4.48453848        1
N        2.24226924       2.24226924       6.72680771        2
N        2.24226924       0.00000000       4.48453848        2
N        0.00000000       2.24226924       4.48453848        2
N        0.00000000       0.00000000       6.72680771        2
Hf       0.00000000       0.00000000       8.96907695        1
Zr       0.00000000       2.24226924      11.21134619        1
Ta       2.24226924       0.00000000      11.21134619        1
Ti       2.24226924       2.24226924       8.96907695        1
N        2.24226924       2.24226924      11.21134619        2
N        2.24226924       0.00000000       8.96907695        2
N        0.00000000       2.24226924       8.96907695        2
N        0.00000000       0.00000000      11.21134619        2
Ti       0.00000000       4.48453848       0.00000000        1
Ti       0.00000000       6.72680771       2.24226924        1
Zr       2.24226924       4.48453848       2.24226924        1
Hf       2.24226924       6.72680771       0.00000000        1
N        2.24226924       6.72680771       2.24226924        2
N        2.24226924       4.48453848       0.00000000        2
N        0.00000000       6.72680771       0.00000000        2
N        0.00000000       4.48453848       2.24226924        2
Zr       0.00000000       4.48453848       4.48453848        1
Hf       0.00000000       6.72680771       6.72680771        1
Ta       2.24226924       4.48453848       6.72680771        1
Ta       2.24226924       6.72680771       4.48453848        1
N        2.24226924       6.72680771       6.72680771        2
N        2.24226924       4.48453848       4.48453848        2
N        0.00000000       6.72680771       4.48453848        2
N        0.00000000       4.48453848       6.72680771        2
Hf       0.00000000       4.48453848       8.96907695        1
Hf       0.00000000       6.72680771      11.21134619        1
Nb       2.24226924       4.48453848      11.21134619        1
Ta       2.24226924       6.72680771       8.96907695        1
N        2.24226924       6.72680771      11.21134619        2
N        2.24226924       4.48453848       8.96907695        2
N        0.00000000       6.72680771       8.96907695        2
N        0.00000000       4.48453848      11.21134619        2
Ta       0.00000000       8.96907695       0.00000000        1
Nb       0.00000000      11.21134619       2.24226924        1
Hf       2.24226924       8.96907695       2.24226924        1
Hf       2.24226924      11.21134619       0.00000000        1
N        2.24226924      11.21134619       2.24226924        2
N        2.24226924       8.96907695       0.00000000        2
N        0.00000000      11.21134619       0.00000000        2
N        0.00000000       8.96907695       2.24226924        2
Hf       0.00000000       8.96907695       4.48453848        1
Ti       0.00000000      11.21134619       6.72680771        1
Ti       2.24226924       8.96907695       6.72680771        1
Ta       2.24226924      11.21134619       4.48453848        1
N        2.24226924      11.21134619       6.72680771        2
N        2.24226924       8.96907695       4.48453848        2
N        0.00000000      11.21134619       4.48453848        2
N        0.00000000       8.96907695       6.72680771        2
Zr       0.00000000       8.96907695       8.96907695        1
Ta       0.00000000      11.21134619      11.21134619        1
Zr       2.24226924       8.96907695      11.21134619        1
Ti       2.24226924      11.21134619       8.96907695        1
N        2.24226924      11.21134619      11.21134619        2
N        2.24226924       8.96907695       8.96907695        2
N        0.00000000      11.21134619       8.96907695        2
N        0.00000000       8.96907695      11.21134619        2
Hf       4.48453848       0.00000000       0.00000000        1
Ti       4.48453848       2.24226924       2.24226924        1
Hf       6.72680771       0.00000000       2.24226924        1
Nb       6.72680771       2.24226924       0.00000000        1
N        6.72680771       2.24226924       2.24226924        2
N        6.72680771       0.00000000       0.00000000        2
N        4.48453848       2.24226924       0.00000000        2
N        4.48453848       0.00000000       2.24226924        2
Hf       4.48453848       0.00000000       4.48453848        1
Ti       4.48453848       2.24226924       6.72680771        1
Zr       6.72680771       0.00000000       6.72680771        1
Nb       6.72680771       2.24226924       4.48453848        1
N        6.72680771       2.24226924       6.72680771        2
N        6.72680771       0.00000000       4.48453848        2
N        4.48453848       2.24226924       4.48453848        2
N        4.48453848       0.00000000       6.72680771        2
Ti       4.48453848       0.00000000       8.96907695        1
Zr       4.48453848       2.24226924      11.21134619        1
Nb       6.72680771       0.00000000      11.21134619        1
Zr       6.72680771       2.24226924       8.96907695        1
N        6.72680771       2.24226924      11.21134619        2
N        6.72680771       0.00000000       8.96907695        2
N        4.48453848       2.24226924       8.96907695        2
N        4.48453848       0.00000000      11.21134619        2
Hf       4.48453848       4.48453848       0.00000000        1
Ta       4.48453848       6.72680771       2.24226924        1
Ti       6.72680771       4.48453848       2.24226924        1
Hf       6.72680771       6.72680771       0.00000000        1
N        6.72680771       6.72680771       2.24226924        2
N        6.72680771       4.48453848       0.00000000        2
N        4.48453848       6.72680771       0.00000000        2
N        4.48453848       4.48453848       2.24226924        2
Ti       4.48453848       4.48453848       4.48453848        1
Zr       4.48453848       6.72680771       6.72680771        1
Zr       6.72680771       4.48453848       6.72680771        1
Hf       6.72680771       6.72680771       4.48453848        1
N        6.72680771       6.72680771       6.72680771        2
N        6.72680771       4.48453848       4.48453848        2
N        4.48453848       6.72680771       4.48453848        2
N        4.48453848       4.48453848       6.72680771        2
Zr       4.48453848       4.48453848       8.96907695        1
Nb       4.48453848       6.72680771      11.21134619        1
Ta       6.72680771       4.48453848      11.21134619        1
Ti       6.72680771       6.72680771       8.96907695        1
N        6.72680771       6.72680771      11.21134619        2
N        6.72680771       4.48453848       8.96907695        2
N        4.48453848       6.72680771       8.96907695        2
N        4.48453848       4.48453848      11.21134619        2
Ti       4.48453848       8.96907695       0.00000000        1
Hf       4.48453848      11.21134619       2.24226924        1
Ta       6.72680771       8.96907695       2.24226924        1
Nb       6.72680771      11.21134619       0.00000000        1
N        6.72680771      11.21134619       2.24226924        2
N        6.72680771       8.96907695       0.00000000        2
N        4.48453848      11.21134619       0.00000000        2
N        4.48453848       8.96907695       2.24226924        2
Nb       4.48453848       8.96907695       4.48453848        1
Zr       4.48453848      11.21134619       6.72680771        1
Ta       6.72680771       8.96907695       6.72680771        1
Zr       6.72680771      11.21134619       4.48453848        1
N        6.72680771      11.21134619       6.72680771        2
N        6.72680771       8.96907695       4.48453848        2
N        4.48453848      11.21134619       4.48453848        2
N        4.48453848       8.96907695       6.72680771        2
Nb       4.48453848       8.96907695       8.96907695        1
Ta       4.48453848      11.21134619      11.21134619        1
Hf       6.72680771       8.96907695      11.21134619        1
Hf       6.72680771      11.21134619       8.96907695        1
N        6.72680771      11.21134619      11.21134619        2
N        6.72680771       8.96907695       8.96907695        2
N        4.48453848      11.21134619       8.96907695        2
N        4.48453848       8.96907695      11.21134619        2
Ti       8.96907695       0.00000000       0.00000000        1
Ti       8.96907695       2.24226924       2.24226924        1
Ta      11.21134619       0.00000000       2.24226924        1
Zr      11.21134619       2.24226924       0.00000000        1
N       11.21134619       2.24226924       2.24226924        2
N       11.21134619       0.00000000       0.00000000        2
N        8.96907695       2.24226924       0.00000000        2
N        8.96907695       0.00000000       2.24226924        2
Hf       8.96907695       0.00000000       4.48453848        1
Zr       8.96907695       2.24226924       6.72680771        1
Nb      11.21134619       0.00000000       6.72680771        1
Ti      11.21134619       2.24226924       4.48453848        1
N       11.21134619       2.24226924       6.72680771        2
N       11.21134619       0.00000000       4.48453848        2
N        8.96907695       2.24226924       4.48453848        2
N        8.96907695       0.00000000       6.72680771        2
Nb       8.96907695       0.00000000       8.96907695        1
Ta       8.96907695       2.24226924      11.21134619        1
Ti      11.21134619       0.00000000      11.21134619        1
Ta      11.21134619       2.24226924       8.96907695        1
N       11.21134619       2.24226924      11.21134619        2
N       11.21134619       0.00000000       8.96907695        2
N        8.96907695       2.24226924       8.96907695        2
N        8.96907695       0.00000000      11.21134619        2
Ti       8.96907695       4.48453848       0.00000000        1
Hf       8.96907695       6.72680771       2.24226924        1
Zr      11.21134619       4.48453848       2.24226924        1
Zr      11.21134619       6.72680771       0.00000000        1
N       11.21134619       6.72680771       2.24226924        2
N       11.21134619       4.48453848       0.00000000        2
N        8.96907695       6.72680771       0.00000000        2
N        8.96907695       4.48453848       2.24226924        2
Ta       8.96907695       4.48453848       4.48453848        1
Ta       8.96907695       6.72680771       6.72680771        1
Ta      11.21134619       4.48453848       6.72680771        1
Ti      11.21134619       6.72680771       4.48453848        1
N       11.21134619       6.72680771       6.72680771        2
N       11.21134619       4.48453848       4.48453848        2
N        8.96907695       6.72680771       4.48453848        2
N        8.96907695       4.48453848       6.72680771        2
Ta       8.96907695       4.48453848       8.96907695        1
Nb       8.96907695       6.72680771      11.21134619        1
Ta      11.21134619       4.48453848      11.21134619        1
Nb      11.21134619       6.72680771       8.96907695        1
N       11.21134619       6.72680771      11.21134619        2
N       11.21134619       4.48453848       8.96907695        2
N        8.96907695       6.72680771       8.96907695        2
N        8.96907695       4.48453848      11.21134619        2
Ti       8.96907695       8.96907695       0.00000000        1
Nb       8.96907695      11.21134619       2.24226924        1
Zr      11.21134619       8.96907695       2.24226924        1
Nb      11.21134619      11.21134619       0.00000000        1
N       11.21134619      11.21134619       2.24226924        2
N       11.21134619       8.96907695       0.00000000        2
N        8.96907695      11.21134619       0.00000000        2
N        8.96907695       8.96907695       2.24226924        2
Nb       8.96907695       8.96907695       4.48453848        1
Nb       8.96907695      11.21134619       6.72680771        1
Zr      11.21134619       8.96907695       6.72680771        1
Nb      11.21134619      11.21134619       4.48453848        1
N       11.21134619      11.21134619       6.72680771        2
N       11.21134619       8.96907695       4.48453848        2
N        8.96907695      11.21134619       4.48453848        2
N        8.96907695       8.96907695       6.72680771        2
Nb       8.96907695       8.96907695       8.96907695        1
Zr       8.96907695      11.21134619      11.21134619        1
Ta      11.21134619       8.96907695      11.21134619        1
Zr      11.21134619      11.21134619       8.96907695        1
N       11.21134619      11.21134619      11.21134619        2
N       11.21134619       8.96907695       8.96907695        2
N        8.96907695      11.21134619       8.96907695        2
N        8.96907695       8.96907695      11.21134619        2
216
Lattice="13.453615425789224 0.0 0.0 0.0 13.453615425789224 0.0 0.0 0.0 13.453615425789224" Properties=species:S:1:pos:R:3:tags:I:1 sqs_abs_alpha=0.11245741271715297 energy=-2238.2541083376645 mc_step=250 energy_method=uma rosenbluth_W_new=4.7306535678868435 rosenbluth_W_old=3.430621792922812 pbc="T T T"
Zr       0.00000000       0.00000000       0.00000000        1
Ta       0.00000000       2.24226924       2.24226924        1
Ti       2.24226924       0.00000000       2.24226924        1
Ta       2.24226924       2.24226924       0.00000000        1
N        2.24226924       2.24226924       2.24226924        2
N        2.24226924       0.00000000       0.00000000        2
N        0.00000000       2.24226924       0.00000000        2
N        0.00000000       0.00000000       2.24226924        2
Ta       0.00000000       0.00000000       4.48453848        1
Ti       0.00000000       2.24226924       6.72680771        1
Nb       2.24226924       0.00000000       6.72680771        1
Hf       2.24226924       2.24226924       4.48453848        1
N        2.24226924       2.24226924       6.72680771        2
N        2.24226924       0.00000000       4.48453848        2
N        0.00000000       2.24226924       4.48453848        2
N        0.00000000       0.00000000       6.72680771        2
Zr       0.00000000       0.00000000       8.96907695        1
Hf       0.00000000       2.24226924      11.21134619        1
Zr       2.24226924       0.00000000      11.21134619        1
Ti       2.24226924       2.24226924       8.96907695        1
N        2.24226924       2.24226924      11.21134619        2
N        2.24226924       0.00000000       8.96907695        2
N        0.00000000       2.24226924       8.96907695        2
N        0.00000000       0.00000000      11.21134619        2
Ti       0.00000000       4.48453848       0.00000000        1
Ti       0.00000000       6.72680771       2.24226924        1
Ti       2.24226924       4.48453848       2.24226924        1
Hf       2.24226924       6.72680771       0.00000000        1
N        2.24226924       6.72680771       2.24226924        2
N        2.24226924       4.48453848       0.00000000        2
N        0.00000000       6.72680771       0.00000000        2
N        0.00000000       4.48453848       2.24226924        2
Zr       0.00000000       4.48453848       4.48453848        1
Hf       0.00000000       6.72680771       6.72680771        1
Zr       2.24226924       4.48453848       6.72680771        1
Ta       2.24226924       6.72680771       4.48453848        1
N        2.24226924       6.72680771       6.72680771        2
N        2.24226924       4.48453848       4.48453848        2
N        0.00000000       6.72680771       4.48453848        2
N        0.00000000       4.48453848       6.72680771        2
Hf       0.00000000       4.48453848       8.96907695        1
Hf       0.00000000       6.72680771      11.21134619        1
Nb       2.24226924       4.48453848      11.21134619        1
Ta       2.24226924       6.72680771       8.96907695        1
N        2.24226924       6.72680771      11.21134619        2
N        2.24226924       4.48453848       8.96907695        2
N        0.00000000       6.72680771       8.96907695        2
N        0.00000000       4.48453848      11.21134619        2
Ta       0.00000000       8.96907695       0.00000000        1
Zr       0.00000000      11.21134619       2.24226924        1
Ti       2.24226924       8.96907695       2.24226924        1
Hf       2.24226924      11.21134619       0.00000000        1
N        2.24226924      11.21134619       2.24226924        2
N        2.24226924       8.96907695       0.00000000        2
N        0.00000000      11.21134619       0.00000000        2
N        0.00000000       8.96907695       2.24226924        2
Hf       0.00000000       8.96907695       4.48453848        1
Ti       0.00000000      11.21134619       6.72680771        1
Nb       2.24226924       8.96907695       6.72680771        1
Ta       2.24226924      11.21134619       4.48453848        1
N        2.24226924      11.21134619       6.72680771        2
N        2.24226924       8.96907695       4.48453848        2
N        0.00000000      11.21134619       4.48453848        2
N        0.00000000       8.96907695       6.72680771        2
Nb       0.00000000       8.96907695       8.96907695        1
Ti       0.00000000      11.21134619      11.21134619        1
Zr       2.24226924       8.96907695      11.21134619        1
Nb       2.24226924      11.21134619       8.96907695        1
N        2.24226924      11.21134619      11.21134619        2
N        2.24226924       8.96907695       8.96907695        2
N        0.00000000      11.21134619       8.96907695        2
N        0.00000000       8.96907695      11.21134619        2
Zr       4.48453848       0.00000000       0.00000000        1
Zr       4.48453848       2.24226924       2.24226924        1
Ti       6.72680771       0.00000000       2.24226924        1
Ta       6.72680771       2.24226924       0.00000000        1
N        6.72680771       2.24226924       2.24226924        2
N        6.72680771       0.00000000       0.00000000        2
N        4.48453848       2.24226924       0.00000000        2
N        4.48453848       0.00000000       2.24226924        2
Ti       4.48453848       0.00000000       4.48453848        1
Ti       4.48453848       2.24226924       6.72680771        1
Zr       6.72680771       0.00000000       6.72680771        1
Nb       6.72680771       2.24226924       4.48453848        1
N        6.72680771       2.24226924       6.72680771        2
N        6.72680771       0.00000000       4.48453848        2
N        4.48453848       2.24226924       4.48453848        2
N        4.48453848       0.00000000       6.72680771        2
Ta       4.48453848       0.00000000       8.96907695        1
Zr       4.48453848       2.24226924      11.21134619        1
Nb       6.72680771       0.00000000      11.21134619        1
Hf       6.72680771       2.24226924       8.96907695        1
N        6.72680771       2.24226924      11.21134619        2
N        6.72680771       0.00000000       8.96907695        2
N        4.48453848       2.24226924       8.96907695        2
N        4.48453848       0.00000000      11.21134619        2
Zr       4.48453848       4.48453848       0.00000000        1
Zr       4.48453848       6.72680771       2.24226924        1
Ti       6.72680771       4.48453848       2.24226924        1
Hf       6.72680771       6.72680771       0.00000000        1
N        6.72680771       6.72680771       2.24226924        2
N        6.72680771       4.48453848       0.00000000        2
N        4.48453848       6.72680771       0.00000000        2
N        4.48453848       4.48453848       2.24226924        2
Ta       4.48453848       4.48453848       4.48453848        1
Zr       4.48453848       6.72680771       6.72680771        1
Zr       6.72680771       4.48453848       6.72680771        1
Hf       6.72680771       6.72680771       4.48453848        1
N        6.72680771       6.72680771       6.72680771        2
N        6.72680771       4.48453848       4.48453848        2
N        4.48453848       6.72680771       4.48453848        2
N        4.48453848       4.48453848       6.72680771        2
Nb       4.48453848       4.48453848       8.96907695        1
Hf       4.48453848       6.72680771      11.21134619        1
Ta       6.72680771       4.48453848      11.21134619        1
Ti       6.72680771       6.72680771       8.96907695        1
N        6.72680771       6.72680771      11.21134619        2
N        6.72680771       4.48453848       8.96907695        2
N        4.48453848       6.72680771       8.96907695        2
N        4.48453848       4.48453848      11.21134619        2
Ti       4.48453848       8.96907695       0.00000000        1
Hf       4.48453848      11.21134619       2.24226924        1
Ta       6.72680771       8.96907695       2.24226924        1
Zr       6.72680771      11.21134619       0.00000000        1
N        6.72680771      11.21134619       2.24226924        2
N        6.72680771       8.96907695       0.00000000        2
N        4.48453848      11.21134619       0.00000000        2
N        4.48453848       8.96907695       2.24226924        2
Nb       4.48453848       8.96907695       4.48453848        1
Zr       4.48453848      11.21134619       6.72680771        1
Ta       6.72680771       8.96907695       6.72680771        1
Nb       6.72680771      11.21134619       4.48453848        1
N        6.72680771      11.21134619       6.72680771        2
N        6.72680771       8.96907695       4.48453848        2
N        4.48453848      11.21134619       4.48453848        2
N        4.48453848       8.96907695       6.72680771        2
Nb       4.48453848       8.96907695       8.96907695        1
Ta       4.48453848      11.21134619      11.21134619        1
Ta       6.72680771       8.96907695      11.21134619        1
Ti       6.72680771      11.21134619       8.96907695        1
N        6.72680771      11.21134619      11.21134619        2
N        6.72680771       8.96907695       8.96907695        2
N        4.48453848      11.21134619       8.96907695        2
N        4.48453848       8.96907695      11.21134619        2
Hf       8.96907695       0.00000000       0.00000000        1
Hf       8.96907695       2.24226924       2.24226924        1
Nb      11.21134619       0.00000000       2.24226924        1
Ta      11.21134619       2.24226924       0.00000000        1
N       11.21134619       2.24226924       2.24226924        2
N       11.21134619       0.00000000       0.00000000        2
N        8.96907695       2.24226924       0.00000000        2
N        8.96907695       0.00000000       2.24226924        2
Hf       8.96907695       0.00000000       4.48453848        1
Hf       8.96907695       2.24226924       6.72680771        1
Nb      11.21134619       0.00000000       6.72680771        1
Nb      11.21134619       2.24226924       4.48453848        1
N       11.21134619       2.24226924       6.72680771        2
N       11.21134619       0.00000000       4.48453848        2
N        8.96907695       2.24226924       4.48453848        2
N        8.96907695       0.00000000       6.72680771        2
Nb       8.96907695       0.00000000       8.96907695        1
Hf       8.96907695       2.24226924      11.21134619        1
Ti      11.21134619       0.00000000      11.21134619        1
Ta      11.21134619       2.24226924       8.96907695        1
N       11.21134619       2.24226924      11.21134619        2
N       11.21134619       0.00000000       8.96907695        2
N        8.96907695       2.24226924       8.96907695        2
N        8.96907695       0.00000000      11.21134619        2
Ti       8.96907695       4.48453848       0.00000000        1
Ta       8.96907695       6.72680771       2.24226924        1
Ta      11.21134619       4.48453848       2.24226924        1
Hf      11.21134619       6.72680771       0.00000000        1
N       11.21134619       6.72680771       2.24226924        2
N       11.21134619       4.48453848       0.00000000        2
N        8.96907695       6.72680771       0.00000000        2
N        8.96907695       4.48453848       2.24226924        2
Ti       8.96907695       4.48453848       4.48453848        1
Hf       8.96907695       6.72680771       6.72680771        1
Ta      11.21134619       4.48453848       6.72680771        1
Ti      11.21134619       6.72680771       4.48453848        1
N       11.21134619       6.72680771       6.72680771        2
N       11.21134619       4.48453848       4.48453848        2
N        8.96907695       6.72680771       4.48453848        2
N        8.96907695       4.48453848       6.72680771        2
Zr       8.96907695       4.48453848       8.96907695        1
Nb       8.96907695       6.72680771      11.21134619        1
Ta      11.21134619       4.48453848      11.21134619        1
Hf      11.21134619       6.72680771       8.96907695        1
N       11.21134619       6.72680771      11.21134619        2
N       11.21134619       4.48453848       8.96907695        2
N        8.96907695       6.72680771       8.96907695        2
N        8.96907695       4.48453848      11.21134619        2
Nb       8.96907695       8.96907695       0.00000000        1
Nb       8.96907695      11.21134619       2.24226924        1
Ti      11.21134619       8.96907695       2.24226924        1
Nb      11.21134619      11.21134619       0.00000000        1
N       11.21134619      11.21134619       2.24226924        2
N       11.21134619       8.96907695       0.00000000        2
N        8.96907695      11.21134619       0.00000000        2
N        8.96907695       8.96907695       2.24226924        2
Nb       8.96907695       8.96907695       4.48453848        1
Ti       8.96907695      11.21134619       6.72680771        1
Zr      11.21134619       8.96907695       6.72680771        1
Zr      11.21134619      11.21134619       4.48453848        1
N       11.21134619      11.21134619       6.72680771        2
N       11.21134619       8.96907695       4.48453848        2
N        8.96907695      11.21134619       4.48453848        2
N        8.96907695       8.96907695       6.72680771        2
Hf       8.96907695       8.96907695       8.96907695        1
Zr       8.96907695      11.21134619      11.21134619        1
Nb      11.21134619       8.96907695      11.21134619        1
Zr      11.21134619      11.21134619       8.96907695        1
N       11.21134619      11.21134619      11.21134619        2
N       11.21134619       8.96907695       8.96907695        2
N        8.96907695      11.21134619       8.96907695        2
N        8.96907695       8.96907695      11.21134619        2
216
Lattice="13.453615425789224 0.0 0.0 0.0 13.453615425789224 0.0 0.0 0.0 13.453615425789224" Properties=species:S:1:pos:R:3:tags:I:1 sqs_abs_alpha=0.10789003204587619 energy=-2238.1297336854304 mc_step=300 energy_method=uma rosenbluth_W_new=4.1944392975298435 rosenbluth_W_old=4.900058198415907 pbc="T T T"
Zr       0.00000000       0.00000000       0.00000000        1
Ti       0.00000000       2.24226924       2.24226924        1
Ti       2.24226924       0.00000000       2.24226924        1
Hf       2.24226924       2.24226924       0.00000000        1
N        2.24226924       2.24226924       2.24226924        2
N        2.24226924       0.00000000       0.00000000        2
N        0.00000000       2.24226924       0.00000000        2
N        0.00000000       0.00000000       2.24226924        2
Hf       0.00000000       0.00000000       4.48453848        1
Ti       0.00000000       2.24226924       6.72680771        1
Nb       2.24226924       0.00000000       6.72680771        1
Hf       2.24226924       2.24226924       4.48453848        1
N        2.24226924       2.24226924       6.72680771        2
N        2.24226924       0.00000000       4.48453848        2
N        0.00000000       2.24226924       4.48453848        2
N        0.00000000       0.00000000       6.72680771        2
Nb       0.00000000       0.00000000       8.96907695        1
Hf       0.00000000       2.24226924      11.21134619        1
Zr       2.24226924       0.00000000      11.21134619        1
Zr       2.24226924       2.24226924       8.96907695        1
N        2.24226924       2.24226924      11.21134619        2
N        2.24226924       0.00000000       8.96907695        2
N        0.00000000       2.24226924       8.96907695        2
N        0.00000000       0.00000000      11.21134619        2
Ti       0.00000000       4.48453848       0.00000000        1
Ta       0.00000000       6.72680771       2.24226924        1
Zr       2.24226924       4.48453848       2.24226924        1
Hf       2.24226924       6.72680771       0.00000000        1
N        2.24226924       6.72680771       2.24226924        2
N        2.24226924       4.48453848       0.00000000        2
N        0.00000000       6.72680771       0.00000000        2
N        0.00000000       4.48453848       2.24226924        2
Hf       0.00000000       4.48453848       4.48453848        1
Nb       0.00000000       6.72680771       6.72680771        1
Zr       2.24226924       4.48453848       6.72680771        1
Zr       2.24226924       6.72680771       4.48453848        1
N        2.24226924       6.72680771       6.72680771        2
N        2.24226924       4.48453848       4.48453848        2
N        0.00000000       6.72680771       4.48453848        2
N        0.00000000       4.48453848       6.72680771        2
Hf       0.00000000       4.48453848       8.96907695        1
Nb       0.00000000       6.72680771      11.21134619        1
Nb       2.24226924       4.48453848      11.21134619        1
Ta       2.24226924       6.72680771       8.96907695        1
N        2.24226924       6.72680771      11.21134619        2
N        2.24226924       4.48453848       8.96907695        2
N        0.00000000       6.72680771       8.96907695        2
N        0.00000000       4.48453848      11.21134619        2
Ta       0.00000000       8.96907695       0.00000000        1
Zr       0.00000000      11.21134619       2.24226924        1
Ti       2.24226924       8.96907695       2.24226924        1
Hf       2.24226924      11.21134619       0.00000000        1
N        2.24226924      11.21134619       2.24226924        2
N        2.24226924       8.96907695       0.00000000        2
N        0.00000000      11.21134619       0.00000000        2
N        0.00000000       8.96907695       2.24226924        2
Hf       0.00000000       8.96907695       4.48453848        1
Ti       0.00000000      11.21134619       6.72680771        1
Zr       2.24226924       8.96907695       6.72680771        1
Ta       2.24226924      11.21134619       4.48453848        1
N        2.24226924      11.21134619       6.72680771        2
N        2.24226924       8.96907695       4.48453848        2
N        0.00000000      11.21134619       4.48453848        2
N        0.00000000       8.96907695       6.72680771        2
Zr       0.00000000       8.96907695       8.96907695        1
Ta       0.00000000      11.21134619      11.21134619        1
Zr       2.24226924       8.96907695      11.21134619        1
Ti       2.24226924      11.21134619       8.96907695        1
N        2.24226924      11.21134619      11.21134619        2
N        2.24226924       8.96907695       8.96907695        2
N        0.00000000      11.21134619       8.96907695        2
N        0.00000000       8.96907695      11.21134619        2
Zr       4.48453848       0.00000000       0.00000000        1
Zr       4.48453848       2.24226924       2.24226924        1
Ti       6.72680771       0.00000000       2.24226924        1
Ta       6.72680771       2.24226924       0.00000000        1
N        6.72680771       2.24226924       2.24226924        2
N        6.72680771       0.00000000       0.00000000        2
N        4.48453848       2.24226924       0.00000000        2
N        4.48453848       0.00000000       2.24226924        2
Zr       4.48453848       0.00000000       4.48453848        1
Ti       4.48453848       2.24226924       6.72680771        1
Zr       6.72680771       0.00000000       6.72680771        1
Nb       6.72680771       2.24226924       4.48453848        1
N        6.72680771       2.24226924       6.72680771        2
N        6.72680771       0.00000000       4.48453848        2
N        4.48453848       2.24226924       4.48453848        2
N        4.48453848       0.00000000       6.72680771        2
Ta       4.48453848       0.00000000       8.96907695        1
Ta       4.48453848       2.24226924      11.21134619        1
Ta       6.72680771       0.00000000      11.21134619        1
Ta       6.72680771       2.24226924       8.96907695        1
N        6.72680771       2.24226924      11.21134619        2
N        6.72680771       0.00000000       8.96907695        2
N        4.48453848       2.24226924       8.96907695        2
N        4.48453848       0.00000000      11.21134619        2
Zr       4.48453848       4.48453848       0.00000000        1
Zr       4.48453848       6.72680771       2.24226924        1
Ta       6.72680771       4.48453848       2.24226924        1
Hf       6.72680771       6.72680771       0.00000000        1
N        6.72680771       6.72680771       2.24226924        2
N        6.72680771       4.48453848       0.00000000        2
N        4.48453848       6.72680771       0.00000000        2
N        4.48453848       4.48453848       2.24226924        2
Nb       4.48453848       4.48453848       4.48453848        1
Hf       4.48453848       6.72680771       6.72680771        1
Zr       6.72680771       4.48453848       6.72680771        1
Ta       6.72680771       6.72680771       4.48453848        1
N        6.72680771       6.72680771       6.72680771        2
N        6.72680771       4.48453848       4.48453848        2
N        4.48453848       6.72680771       4.48453848        2
N        4.48453848       4.48453848       6.72680771        2
Zr       4.48453848       4.48453848       8.96907695        1
Nb       4.48453848       6.72680771      11.21134619        1
Nb       6.72680771       4.48453848      11.21134619        1
Ti       6.72680771       6.72680771       8.96907695        1
N        6.72680771       6.72680771      11.21134619        2
N        6.72680771       4.48453848       8.96907695        2
N        4.48453848       6.72680771       8.96907695        2
N        4.48453848       4.48453848      11.21134619        2
Ti       4.48453848       8.96907695       0.00000000        1
Hf       4.48453848      11.21134619       2.24226924        1
Ta       6.72680771       8.96907695       2.24226924        1
Hf       6.72680771      11.21134619       0.00000000        1
N        6.72680771      11.21134619       2.24226924        2
N        6.72680771       8.96907695       0.00000000        2
N        4.48453848      11.21134619       0.00000000        2
N        4.48453848       8.96907695       2.24226924        2
Nb       4.48453848       8.96907695       4.48453848        1
Nb       4.48453848      11.21134619       6.72680771        1
Ta       6.72680771       8.96907695       6.72680771        1
Ti       6.72680771      11.21134619       4.48453848        1
N        6.72680771      11.21134619       6.72680771        2
N        6.72680771       8.96907695       4.48453848        2
N        4.48453848      11.21134619       4.48453848        2
N        4.48453848       8.96907695       6.72680771        2
Ti       4.48453848       8.96907695       8.96907695        1
Ta       4.48453848      11.21134619      11.21134619        1
Ti       6.72680771       8.96907695      11.21134619        1
Ti       6.72680771      11.21134619       8.96907695        1
N        6.72680771      11.21134619      11.21134619        2
N        6.72680771       8.96907695       8.96907695        2
N        4.48453848      11.21134619       8.96907695        2
N        4.48453848       8.96907695      11.21134619        2
Ti       8.96907695       0.00000000       0.00000000        1
Hf       8.96907695       2.24226924       2.24226924        1
Nb      11.21134619       0.00000000       2.24226924        1
Hf      11.21134619       2.24226924       0.00000000        1
N       11.21134619       2.24226924       2.24226924        2
N       11.21134619       0.00000000       0.00000000        2
N        8.96907695       2.24226924       0.00000000        2
N        8.96907695       0.00000000       2.24226924        2
Ta       8.96907695       0.00000000       4.48453848        1
Nb       8.96907695       2.24226924       6.72680771        1
Ta      11.21134619       0.00000000       6.72680771        1
Hf      11.21134619       2.24226924       4.48453848        1
N       11.21134619       2.24226924       6.72680771        2
N       11.21134619       0.00000000       4.48453848        2
N        8.96907695       2.24226924       4.48453848        2
N        8.96907695       0.00000000       6.72680771        2
Nb       8.96907695       0.00000000       8.96907695        1
Hf       8.96907695       2.24226924      11.21134619        1
Ti      11.21134619       0.00000000      11.21134619        1
Zr      11.21134619       2.24226924       8.96907695        1
N       11.21134619       2.24226924      11.21134619        2
N       11.21134619       0.00000000       8.96907695        2
N        8.96907695       2.24226924       8.96907695        2
N        8.96907695       0.00000000      11.21134619        2
Ti       8.96907695       4.48453848       0.00000000        1
Ta       8.96907695       6.72680771       2.24226924        1
Ta      11.21134619       4.48453848       2.24226924        1
Hf      11.21134619       6.72680771       0.00000000        1
N       11.21134619       6.72680771       2.24226924        2
N       11.21134619       4.48453848       0.00000000        2
N        8.96907695       6.72680771       0.00000000        2
N        8.96907695       4.48453848       2.24226924        2
Ti       8.96907695       4.48453848       4.48453848        1
Hf       8.96907695       6.72680771       6.72680771        1
Nb      11.21134619       4.48453848       6.72680771        1
Ti      11.21134619       6.72680771       4.48453848        1
N       11.21134619       6.72680771       6.72680771        2
N       11.21134619       4.48453848       4.48453848        2
N        8.96907695       6.72680771       4.48453848        2
N        8.96907695       4.48453848       6.72680771        2
Ti       8.96907695       4.48453848       8.96907695        1
Nb       8.96907695       6.72680771      11.21134619        1
Zr      11.21134619       4.48453848      11.21134619        1
Nb      11.21134619       6.72680771       8.96907695        1
N       11.21134619       6.72680771      11.21134619        2
N       11.21134619       4.48453848       8.96907695        2
N        8.96907695       6.72680771       8.96907695        2
N        8.96907695       4.48453848      11.21134619        2
Nb       8.96907695       8.96907695       0.00000000        1
Nb       8.96907695      11.21134619       2.24226924        1
Zr      11.21134619       8.96907695       2.24226924        1
Nb      11.21134619      11.21134619       0.00000000        1
N       11.21134619      11.21134619       2.24226924        2
N       11.21134619       8.96907695       0.00000000        2
N        8.96907695      11.21134619       0.00000000        2
N        8.96907695       8.96907695       2.24226924        2
Hf       8.96907695       8.96907695       4.48453848        1
Hf       8.96907695      11.21134619       6.72680771        1
Ti      11.21134619       8.96907695       6.72680771        1
Hf      11.21134619      11.21134619       4.48453848        1
N       11.21134619      11.21134619       6.72680771        2
N       11.21134619       8.96907695       4.48453848        2
N        8.96907695      11.21134619       4.48453848        2
N        8.96907695       8.96907695       6.72680771        2
Ta       8.96907695       8.96907695       8.96907695        1
Zr       8.96907695      11.21134619      11.21134619        1
Nb      11.21134619       8.96907695      11.21134619        1
Ta      11.21134619      11.21134619       8.96907695        1
N       11.21134619      11.21134619      11.21134619        2
N       11.21134619       8.96907695       8.96907695        2
N        8.96907695      11.21134619       8.96907695        2
N        8.96907695       8.96907695      11.21134619        2
216
Lattice="13.453615425789224 0.0 0.0 0.0 13.453615425789224 0.0 0.0 0.0 13.453615425789224" Properties=species:S:1:pos:R:3:tags:I:1 sqs_abs_alpha=0.11352335975712599 energy=-2238.302048067835 mc_step=350 energy_method=uma rosenbluth_W_new=4.9850474924109545 rosenbluth_W_old=5.256224820175079 pbc="T T T"
Nb       0.00000000       0.00000000       0.00000000        1
Nb       0.00000000       2.24226924       2.24226924        1
Ti       2.24226924       0.00000000       2.24226924        1
Hf       2.24226924       2.24226924       0.00000000        1
N        2.24226924       2.24226924       2.24226924        2
N        2.24226924       0.00000000       0.00000000        2
N        0.00000000       2.24226924       0.00000000        2
N        0.00000000       0.00000000       2.24226924        2
Hf       0.00000000       0.00000000       4.48453848        1
Nb       0.00000000       2.24226924       6.72680771        1
Ti       2.24226924       0.00000000       6.72680771        1
Hf       2.24226924       2.24226924       4.48453848        1
N        2.24226924       2.24226924       6.72680771        2
N        2.24226924       0.00000000       4.48453848        2
N        0.00000000       2.24226924       4.48453848        2
N        0.00000000       0.00000000       6.72680771        2
Nb       0.00000000       0.00000000       8.96907695        1
Hf       0.00000000       2.24226924      11.21134619        1
Ti       2.24226924       0.00000000      11.21134619        1
Zr       2.24226924       2.24226924       8.96907695        1
N        2.24226924       2.24226924      11.21134619        2
N        2.24226924       0.00000000       8.96907695        2
N        0.00000000       2.24226924       8.96907695        2
N        0.00000000       0.00000000      11.21134619        2
Nb       0.00000000       4.48453848       0.00000000        1
Ti       0.00000000       6.72680771       2.24226924        1
Zr       2.24226924       4.48453848       2.24226924        1
Zr       2.24226924       6.72680771       0.00000000        1
N        2.24226924       6.72680771       2.24226924        2
N        2.24226924       4.48453848       0.00000000        2
N        0.00000000       6.72680771       0.00000000        2
N        0.00000000       4.48453848       2.24226924        2
Nb       0.00000000       4.48453848       4.48453848        1
Nb       0.00000000       6.72680771       6.72680771        1
Nb       2.24226924       4.48453848       6.72680771        1
Zr       2.24226924       6.72680771       4.48453848        1
N        2.24226924       6.72680771       6.72680771        2
N        2.24226924       4.48453848       4.48453848        2
N        0.00000000       6.72680771       4.48453848        2
N        0.00000000       4.48453848       6.72680771        2
Ti       0.00000000       4.48453848       8.96907695        1
Hf       0.00000000       6.72680771      11.21134619        1
Nb       2.24226924       4.48453848      11.21134619        1
Ti       2.24226924       6.72680771       8.96907695        1
N        2.24226924       6.72680771      11.21134619        2
N        2.24226924       4.48453848       8.96907695        2
N        0.00000000       6.72680771       8.96907695        2
N        0.00000000       4.48453848      11.21134619        2
Zr       0.00000000       8.96907695       0.00000000        1
Ti       0.00000000      11.21134619       2.24226924        1
Ti       2.24226924       8.96907695       2.24226924        1
Hf       2.24226924      11.21134619       0.00000000        1
N        2.24226924      11.21134619       2.24226924        2
N        2.24226924       8.96907695       0.00000000        2
N        0.00000000      11.21134619       0.00000000        2
N        0.00000000       8.96907695       2.24226924        2
Zr       0.00000000       8.96907695       4.48453848        1
Ta       0.00000000      11.21134619       6.72680771        1
Hf       2.24226924       8.96907695       6.72680771        1
Ta       2.24226924      11.21134619       4.48453848        1
N        2.24226924      11.21134619       6.72680771        2
N        2.24226924       8.96907695       4.48453848        2
N        0.00000000      11.21134619       4.48453848        2
N        0.00000000       8.96907695       6.72680771        2
Zr       0.00000000       8.96907695       8.96907695        1
Ta       0.00000000      11.21134619      11.21134619        1
Zr       2.24226924       8.96907695      11.21134619        1
Ti       2.24226924      11.21134619       8.96907695        1
N        2.24226924      11.21134619      11.21134619        2
N        2.24226924       8.96907695       8.96907695        2
N        0.00000000      11.21134619       8.96907695        2
N        0.00000000       8.96907695      11.21134619        2
Ti       4.48453848       0.00000000       0.00000000        1
Zr       4.48453848       2.24226924       2.24226924        1
Ti       6.72680771       0.00000000       2.24226924        1
Ta       6.72680771       2.24226924       0.00000000        1
N        6.72680771       2.24226924       2.24226924        2
N        6.72680771       0.00000000       0.00000000        2
N        4.48453848       2.24226924       0.00000000        2
N        4.48453848       0.00000000       2.24226924        2
Hf       4.48453848       0.00000000       4.48453848        1
Zr       4.48453848       2.24226924       6.72680771        1
Zr       6.72680771       0.00000000       6.72680771        1
Nb       6.72680771       2.24226924       4.48453848        1
N        6.72680771       2.24226924       6.72680771        2
N        6.72680771       0.00000000       4.48453848        2
N        4.48453848       2.24226924       4.48453848        2
N        4.48453848       0.00000000       6.72680771        2
Nb       4.48453848       0.00000000       8.96907695        1
Zr       4.48453848       2.24226924      11.21134619        1
Ti       6.72680771       0.00000000      11.21134619        1
Ta       6.72680771       2.24226924       8.96907695        1
N        6.72680771       2.24226924      11.21134619        2
N        6.72680771       0.00000000       8.96907695        2
N        4.48453848       2.24226924       8.96907695        2
N        4.48453848       0.00000000      11.21134619        2
Ti       4.48453848       4.48453848       0.00000000        1
Zr       4.48453848       6.72680771       2.24226924        1
Nb       6.72680771       4.48453848       2.24226924        1
Hf       6.72680771       6.72680771       0.00000000        1
N        6.72680771       6.72680771       2.24226924        2
N        6.72680771       4.48453848       0.00000000        2
N        4.48453848       6.72680771       0.00000000        2
N        4.48453848       4.48453848       2.24226924        2
Nb       4.48453848       4.48453848       4.48453848        1
Zr       4.48453848       6.72680771       6.72680771        1
Nb       6.72680771       4.48453848       6.72680771        1
Ta       6.72680771       6.72680771       4.48453848        1
N        6.72680771       6.72680771       6.72680771        2
N        6.72680771       4.48453848       4.48453848        2
N        4.48453848       6.72680771       4.48453848        2
N        4.48453848       4.48453848       6.72680771        2
Ta       4.48453848       4.48453848       8.96907695        1
Ta       4.48453848       6.72680771      11.21134619        1
Nb       6.72680771       4.48453848      11.21134619        1
Hf       6.72680771       6.72680771       8.96907695        1
N        6.72680771       6.72680771      11.21134619        2
N        6.72680771       4.48453848       8.96907695        2
N        4.48453848       6.72680771       8.96907695        2
N        4.48453848       4.48453848      11.21134619        2
Ti       4.48453848       8.96907695       0.00000000        1
Hf       4.48453848      11.21134619       2.24226924        1
Hf       6.72680771       8.96907695       2.24226924        1
Hf       6.72680771      11.21134619       0.00000000        1
N        6.72680771      11.21134619       2.24226924        2
N        6.72680771       8.96907695       0.00000000        2
N        4.48453848      11.21134619       0.00000000        2
N        4.48453848       8.96907695       2.24226924        2
Ti       4.48453848       8.96907695       4.48453848        1
Nb       4.48453848      11.21134619       6.72680771        1
Nb       6.72680771       8.96907695       6.72680771        1
Ti       6.72680771      11.21134619       4.48453848        1
N        6.72680771      11.21134619       6.72680771        2
N        6.72680771       8.96907695       4.48453848        2
N        4.48453848      11.21134619       4.48453848        2
N        4.48453848       8.96907695       6.72680771        2
Zr       4.48453848       8.96907695       8.96907695        1
Ta       4.48453848      11.21134619      11.21134619        1
Zr       6.72680771       8.96907695      11.21134619        1
Ta       6.72680771      11.21134619       8.96907695        1
N        6.72680771      11.21134619      11.21134619        2
N        6.72680771       8.96907695       8.96907695        2
N        4.48453848      11.21134619       8.96907695        2
N        4.48453848       8.96907695      11.21134619        2
Nb       8.96907695       0.00000000       0.00000000        1
Hf       8.96907695       2.24226924       2.24226924        1
Ta      11.21134619       0.00000000       2.24226924        1
Hf      11.21134619       2.24226924       0.00000000        1
N       11.21134619       2.24226924       2.24226924        2
N       11.21134619       0.00000000       0.00000000        2
N        8.96907695       2.24226924       0.00000000        2
N        8.96907695       0.00000000       2.24226924        2
Hf       8.96907695       0.00000000       4.48453848        1
Nb       8.96907695       2.24226924       6.72680771        1
Ti      11.21134619       0.00000000       6.72680771        1
Hf      11.21134619       2.24226924       4.48453848        1
N       11.21134619       2.24226924       6.72680771        2
N       11.21134619       0.00000000       4.48453848        2
N        8.96907695       2.24226924       4.48453848        2
N        8.96907695       0.00000000       6.72680771        2
Ta       8.96907695       0.00000000       8.96907695        1
Hf       8.96907695       2.24226924      11.21134619        1
Ti      11.21134619       0.00000000      11.21134619        1
Zr      11.21134619       2.24226924       8.96907695        1
N       11.21134619       2.24226924      11.21134619        2
N       11.21134619       0.00000000       8.96907695        2
N        8.96907695       2.24226924       8.96907695        2
N        8.96907695       0.00000000      11.21134619        2
Zr       8.96907695       4.48453848       0.00000000        1
Ti       8.96907695       6.72680771       2.24226924        1
Ta      11.21134619       4.48453848       2.24226924        1
Ta      11.21134619       6.72680771       0.00000000        1
N       11.21134619       6.72680771       2.24226924        2
N       11.21134619       4.48453848       0.00000000        2
N        8.96907695       6.72680771       0.00000000        2
N        8.96907695       4.48453848       2.24226924        2
Ti       8.96907695       4.48453848       4.48453848        1
Hf       8.96907695       6.72680771       6.72680771        1
Ta      11.21134619       4.48453848       6.72680771        1
Zr      11.21134619       6.72680771       4.48453848        1
N       11.21134619       6.72680771       6.72680771        2
N       11.21134619       4.48453848       4.48453848        2
N        8.96907695       6.72680771       4.48453848        2
N        8.96907695       4.48453848       6.72680771        2
Hf       8.96907695       4.48453848       8.96907695        1
Ta       8.96907695       6.72680771      11.21134619        1
Zr      11.21134619       4.48453848      11.21134619        1
Ta      11.21134619       6.72680771       8.96907695        1
N       11.21134619       6.72680771      11.21134619        2
N       11.21134619       4.48453848       8.96907695        2
N        8.96907695       6.72680771       8.96907695        2
N        8.96907695       4.48453848      11.21134619        2
Ta       8.96907695       8.96907695       0.00000000        1
Nb       8.96907695      11.21134619       2.24226924        1
Zr      11.21134619       8.96907695       2.24226924        1
Ta      11.21134619      11.21134619       0.00000000        1
N       11.21134619      11.21134619       2.24226924        2
N       11.21134619       8.96907695       0.00000000        2
N        8.96907695      11.21134619       0.00000000        2
N        8.96907695       8.96907695       2.24226924        2
Hf       8.96907695       8.96907695       4.48453848        1
Hf       8.96907695      11.21134619       6.72680771        1
Ti      11.21134619       8.96907695       6.72680771        1
Ta      11.21134619      11.21134619       4.48453848        1
N       11.21134619      11.21134619       6.72680771        2
N       11.21134619       8.96907695       4.48453848        2
N        8.96907695      11.21134619       4.48453848        2
N        8.96907695       8.96907695       6.72680771        2
Ti       8.96907695       8.96907695       8.96907695        1
Zr       8.96907695      11.21134619      11.21134619        1
Nb      11.21134619       8.96907695      11.21134619        1
Ta      11.21134619      11.21134619       8.96907695        1
N       11.21134619      11.21134619      11.21134619        2
N       11.21134619       8.96907695       8.96907695        2
N        8.96907695      11.21134619       8.96907695        2
N        8.96907695       8.96907695      11.21134619        2
216
Lattice="13.453615425789224 0.0 0.0 0.0 13.453615425789224 0.0 0.0 0.0 13.453615425789224" Properties=species:S:1:pos:R:3:tags:I:1 sqs_abs_alpha=0.11037611738910443 energy=-2238.2361685119363 mc_step=400 energy_method=uma rosenbluth_W_new=4.905479637078062 rosenbluth_W_old=4.175766014306215 pbc="T T T"
Ta       0.00000000       0.00000000       0.00000000        1
Nb       0.00000000       2.24226924       2.24226924        1
Ti       2.24226924       0.00000000       2.24226924        1
Ta       2.24226924       2.24226924       0.00000000        1
N        2.24226924       2.24226924       2.24226924        2
N        2.24226924       0.00000000       0.00000000        2
N        0.00000000       2.24226924       0.00000000        2
N        0.00000000       0.00000000       2.24226924        2
Zr       0.00000000       0.00000000       4.48453848        1
Nb       0.00000000       2.24226924       6.72680771        1
Ti       2.24226924       0.00000000       6.72680771        1
Hf       2.24226924       2.24226924       4.48453848        1
N        2.24226924       2.24226924       6.72680771        2
N        2.24226924       0.00000000       4.48453848        2
N        0.00000000       2.24226924       4.48453848        2
N        0.00000000       0.00000000       6.72680771        2
Nb       0.00000000       0.00000000       8.96907695        1
Zr       0.00000000       2.24226924      11.21134619        1
Hf       2.24226924       0.00000000      11.21134619        1
Zr       2.24226924       2.24226924       8.96907695        1
N        2.24226924       2.24226924      11.21134619        2
N        2.24226924       0.00000000       8.96907695        2
N        0.00000000       2.24226924       8.96907695        2
N        0.00000000       0.00000000      11.21134619        2
Ta       0.00000000       4.48453848       0.00000000        1
Ti       0.00000000       6.72680771       2.24226924        1
Zr       2.24226924       4.48453848       2.24226924        1
Zr       2.24226924       6.72680771       0.00000000        1
N        2.24226924       6.72680771       2.24226924        2
N        2.24226924       4.48453848       0.00000000        2
N        0.00000000       6.72680771       0.00000000        2
N        0.00000000       4.48453848       2.24226924        2
Nb       0.00000000       4.48453848       4.48453848        1
Nb       0.00000000       6.72680771       6.72680771        1
Zr       2.24226924       4.48453848       6.72680771        1
Zr       2.24226924       6.72680771       4.48453848        1
N        2.24226924       6.72680771       6.72680771        2
N        2.24226924       4.48453848       4.48453848        2
N        0.00000000       6.72680771       4.48453848        2
N        0.00000000       4.48453848       6.72680771        2
Ti       0.00000000       4.48453848       8.96907695        1
Ti       0.00000000       6.72680771      11.21134619        1
Nb       2.24226924       4.48453848      11.21134619        1
Hf       2.24226924       6.72680771       8.96907695        1
N        2.24226924       6.72680771      11.21134619        2
N        2.24226924       4.48453848       8.96907695        2
N        0.00000000       6.72680771       8.96907695        2
N        0.00000000       4.48453848      11.21134619        2
Zr       0.00000000       8.96907695       0.00000000        1
Hf       0.00000000      11.21134619       2.24226924        1
Ti       2.24226924       8.96907695       2.24226924        1
Nb       2.24226924      11.21134619       0.00000000        1
N        2.24226924      11.21134619       2.24226924        2
N        2.24226924       8.96907695       0.00000000        2
N        0.00000000      11.21134619       0.00000000        2
N        0.00000000       8.96907695       2.24226924        2
Zr       0.00000000       8.96907695       4.48453848        1
Ta       0.00000000      11.21134619       6.72680771        1
Hf       2.24226924       8.96907695       6.72680771        1
Ta       2.24226924      11.21134619       4.48453848        1
N        2.24226924      11.21134619       6.72680771        2
N        2.24226924       8.96907695       4.48453848        2
N        0.00000000      11.21134619       4.48453848        2
N        0.00000000       8.96907695       6.72680771        2
Zr       0.00000000       8.96907695       8.96907695        1
Ta       0.00000000      11.21134619      11.21134619        1
Ti       2.24226924       8.96907695      11.21134619        1
Ta       2.24226924      11.21134619       8.96907695        1
N        2.24226924      11.21134619      11.21134619        2
N        2.24226924       8.96907695       8.96907695        2
N        0.00000000      11.21134619       8.96907695        2
N        0.00000000       8.96907695      11.21134619        2
Hf       4.48453848       0.00000000       0.00000000        1
Ta       4.48453848       2.24226924       2.24226924        1
Nb       6.72680771       0.00000000       2.24226924        1
Nb       6.72680771       2.24226924       0.00000000        1
N        6.72680771       2.24226924       2.24226924        2
N        6.72680771       0.00000000       0.00000000        2
N        4.48453848       2.24226924       0.00000000        2
N        4.48453848       0.00000000       2.24226924        2
Hf       4.48453848       0.00000000       4.48453848        1
Zr       4.48453848       2.24226924       6.72680771        1
Nb       6.72680771       0.00000000       6.72680771        1
Hf       6.72680771       2.24226924       4.48453848        1
N        6.72680771       2.24226924       6.72680771        2
N        6.72680771       0.00000000       4.48453848        2
N        4.48453848       2.24226924       4.48453848        2
N        4.48453848       0.00000000       6.72680771        2
Nb       4.48453848       0.00000000       8.96907695        1
Zr       4.48453848       2.24226924      11.21134619        1
Zr       6.72680771       0.00000000      11.21134619        1
Ti       6.72680771       2.24226924       8.96907695        1
N        6.72680771       2.24226924      11.21134619        2
N        6.72680771       0.00000000       8.96907695        2
N        4.48453848       2.24226924       8.96907695        2
N        4.48453848       0.00000000      11.21134619        2
Nb       4.48453848       4.48453848       0.00000000        1
Zr       4.48453848       6.72680771       2.24226924        1
Nb       6.72680771       4.48453848       2.24226924        1
Ti       6.72680771       6.72680771       0.00000000        1
N        6.72680771       6.72680771       2.24226924        2
N        6.72680771       4.48453848       0.00000000        2
N        4.48453848       6.72680771       0.00000000        2
N        4.48453848       4.48453848       2.24226924        2
Ta       4.48453848       4.48453848       4.48453848        1
Zr       4.48453848       6.72680771       6.72680771        1
Ti       6.72680771       4.48453848       6.72680771        1
Hf       6.72680771       6.72680771       4.48453848        1
N        6.72680771       6.72680771       6.72680771        2
N        6.72680771       4.48453848       4.48453848        2
N        4.48453848       6.72680771       4.48453848        2
N        4.48453848       4.48453848       6.72680771        2
Ti       4.48453848       4.48453848       8.96907695        1
Ta       4.48453848       6.72680771      11.21134619        1
Nb       6.72680771       4.48453848      11.21134619        1
Hf       6.72680771       6.72680771       8.96907695        1
N        6.72680771       6.72680771      11.21134619        2
N        6.72680771       4.48453848       8.96907695        2
N        4.48453848       6.72680771       8.96907695        2
N        4.48453848       4.48453848      11.21134619        2
Ta       4.48453848       8.96907695       0.00000000        1
Hf       4.48453848      11.21134619       2.24226924        1
Ta       6.72680771       8.96907695       2.24226924        1
Hf       6.72680771      11.21134619       0.00000000        1
N        6.72680771      11.21134619       2.24226924        2
N        6.72680771       8.96907695       0.00000000        2
N        4.48453848      11.21134619       0.00000000        2
N        4.48453848       8.96907695       2.24226924        2
Ti       4.48453848       8.96907695       4.48453848        1
Nb       4.48453848      11.21134619       6.72680771        1
Ti       6.72680771       8.96907695       6.72680771        1
Ta       6.72680771      11.21134619       4.48453848        1
N        6.72680771      11.21134619       6.72680771        2
N        6.72680771       8.96907695       4.48453848        2
N        4.48453848      11.21134619       4.48453848        2
N        4.48453848       8.96907695       6.72680771        2
Zr       4.48453848       8.96907695       8.96907695        1
Ta       4.48453848      11.21134619      11.21134619        1
Zr       6.72680771       8.96907695      11.21134619        1
Nb       6.72680771      11.21134619       8.96907695        1
N        6.72680771      11.21134619      11.21134619        2
N        6.72680771       8.96907695       8.96907695        2
N        4.48453848      11.21134619       8.96907695        2
N        4.48453848       8.96907695      11.21134619        2
Nb       8.96907695       0.00000000       0.00000000        1
Hf       8.96907695       2.24226924       2.24226924        1
Nb      11.21134619       0.00000000       2.24226924        1
Hf      11.21134619       2.24226924       0.00000000        1
N       11.21134619       2.24226924       2.24226924        2
N       11.21134619       0.00000000       0.00000000        2
N        8.96907695       2.24226924       0.00000000        2
N        8.96907695       0.00000000       2.24226924        2
Ti       8.96907695       0.00000000       4.48453848        1
Ta       8.96907695       2.24226924       6.72680771        1
Ti      11.21134619       0.00000000       6.72680771        1
Hf      11.21134619       2.24226924       4.48453848        1
N       11.21134619       2.24226924       6.72680771        2
N       11.21134619       0.00000000       4.48453848        2
N        8.96907695       2.24226924       4.48453848        2
N        8.96907695       0.00000000       6.72680771        2
Hf       8.96907695       0.00000000       8.96907695        1
Ti       8.96907695       2.24226924      11.21134619        1
Ti      11.21134619       0.00000000      11.21134619        1
Ta      11.21134619       2.24226924       8.96907695        1
N       11.21134619       2.24226924      11.21134619        2
N       11.21134619       0.00000000       8.96907695        2
N        8.96907695       2.24226924       8.96907695        2
N        8.96907695       0.00000000      11.21134619        2
Hf       8.96907695       4.48453848       0.00000000        1
Hf       8.96907695       6.72680771       2.24226924        1
Ta      11.21134619       4.48453848       2.24226924        1
Ta      11.21134619       6.72680771       0.00000000        1
N       11.21134619       6.72680771       2.24226924        2
N       11.21134619       4.48453848       0.00000000        2
N        8.96907695       6.72680771       0.00000000        2
N        8.96907695       4.48453848       2.24226924        2
Ti       8.96907695       4.48453848       4.48453848        1
Ta       8.96907695       6.72680771       6.72680771        1
Hf      11.21134619       4.48453848       6.72680771        1
Ti      11.21134619       6.72680771       4.48453848        1
N       11.21134619       6.72680771       6.72680771        2
N       11.21134619       4.48453848       4.48453848        2
N        8.96907695       6.72680771       4.48453848        2
N        8.96907695       4.48453848       6.72680771        2
Ta       8.96907695       4.48453848       8.96907695        1
Ti       8.96907695       6.72680771      11.21134619        1
Zr      11.21134619       4.48453848      11.21134619        1
Zr      11.21134619       6.72680771       8.96907695        1
N       11.21134619       6.72680771      11.21134619        2
N       11.21134619       4.48453848       8.96907695        2
N        8.96907695       6.72680771       8.96907695        2
N        8.96907695       4.48453848      11.21134619        2
Ta       8.96907695       8.96907695       0.00000000        1
Zr       8.96907695      11.21134619       2.24226924        1
Zr      11.21134619       8.96907695       2.24226924        1
Ti      11.21134619      11.21134619       0.00000000        1
N       11.21134619      11.21134619       2.24226924        2
N       11.21134619       8.96907695       0.00000000        2
N        8.96907695      11.21134619       0.00000000        2
N        8.96907695       8.96907695       2.24226924        2
Hf       8.96907695       8.96907695       4.48453848        1
Nb       8.96907695      11.21134619       6.72680771        1
Nb      11.21134619       8.96907695       6.72680771        1
Ti      11.21134619      11.21134619       4.48453848        1
N       11.21134619      11.21134619       6.72680771        2
N       11.21134619       8.96907695       4.48453848        2
N        8.96907695      11.21134619       4.48453848        2
N        8.96907695       8.96907695       6.72680771        2
Hf       8.96907695       8.96907695       8.96907695        1
Zr       8.96907695      11.21134619      11.21134619        1
Nb      11.21134619       8.96907695      11.21134619        1
Hf      11.21134619      11.21134619       8.96907695        1
N       11.21134619      11.21134619      11.21134619        2
N       11.21134619       8.96907695       8.96907695        2
N        8.96907695      11.21134619       8.96907695        2
N        8.96907695       8.96907695      11.21134619        2
216
Lattice="13.453615425789224 0.0 0.0 0.0 13.453615425789224 0.0 0.0 0.0 13.453615425789224" Properties=species:S:1:pos:R:3:tags:I:1 sqs_abs_alpha=0.13444425704165963 energy=-2238.6012191660784 mc_step=450 energy_method=uma rosenbluth_W_new=4.578502205213459 rosenbluth_W_old=3.276298294318203 pbc="T T T"
Ta       0.00000000       0.00000000       0.00000000        1
Nb       0.00000000       2.24226924       2.24226924        1
Ti       2.24226924       0.00000000       2.24226924        1
Ta       2.24226924       2.24226924       0.00000000        1
N        2.24226924       2.24226924       2.24226924        2
N        2.24226924       0.00000000       0.00000000        2
N        0.00000000       2.24226924       0.00000000        2
N        0.00000000       0.00000000       2.24226924        2
Hf       0.00000000       0.00000000       4.48453848        1
Ta       0.00000000       2.24226924       6.72680771        1
Ti       2.24226924       0.00000000       6.72680771        1
Nb       2.24226924       2.24226924       4.48453848        1
N        2.24226924       2.24226924       6.72680771        2
N        2.24226924       0.00000000       4.48453848        2
N        0.00000000       2.24226924       4.48453848        2
N        0.00000000       0.00000000       6.72680771        2
Nb       0.00000000       0.00000000       8.96907695        1
Ta       0.00000000       2.24226924      11.21134619        1
Ta       2.24226924       0.00000000      11.21134619        1
Zr       2.24226924       2.24226924       8.96907695        1
N        2.24226924       2.24226924      11.21134619        2
N        2.24226924       0.00000000       8.96907695        2
N        0.00000000       2.24226924       8.96907695        2
N        0.00000000       0.00000000      11.21134619        2
Hf       0.00000000       4.48453848       0.00000000        1
Nb       0.00000000       6.72680771       2.24226924        1
Zr       2.24226924       4.48453848       2.24226924        1
Zr       2.24226924       6.72680771       0.00000000        1
N        2.24226924       6.72680771       2.24226924        2
N        2.24226924       4.48453848       0.00000000        2
N        0.00000000       6.72680771       0.00000000        2
N        0.00000000       4.48453848       2.24226924        2
Nb       0.00000000       4.48453848       4.48453848        1
Hf       0.00000000       6.72680771       6.72680771        1
Ti       2.24226924       4.48453848       6.72680771        1
Zr       2.24226924       6.72680771       4.48453848        1
N        2.24226924       6.72680771       6.72680771        2
N        2.24226924       4.48453848       4.48453848        2
N        0.00000000       6.72680771       4.48453848        2
N        0.00000000       4.48453848       6.72680771        2
Hf       0.00000000       4.48453848       8.96907695        1
Ti       0.00000000       6.72680771      11.21134619        1
Nb       2.24226924       4.48453848      11.21134619        1
Nb       2.24226924       6.72680771       8.96907695        1
N        2.24226924       6.72680771      11.21134619        2
N        2.24226924       4.48453848       8.96907695        2
N        0.00000000       6.72680771       8.96907695        2
N        0.00000000       4.48453848      11.21134619        2
Zr       0.00000000       8.96907695       0.00000000        1
Zr       0.00000000      11.21134619       2.24226924        1
Ti       2.24226924       8.96907695       2.24226924        1
Ti       2.24226924      11.21134619       0.00000000        1
N        2.24226924      11.21134619       2.24226924        2
N        2.24226924       8.96907695       0.00000000        2
N        0.00000000      11.21134619       0.00000000        2
N        0.00000000       8.96907695       2.24226924        2
Zr       0.00000000       8.96907695       4.48453848        1
Ta       0.00000000      11.21134619       6.72680771        1
Ti       2.24226924       8.96907695       6.72680771        1
Ta       2.24226924      11.21134619       4.48453848        1
N        2.24226924      11.21134619       6.72680771        2
N        2.24226924       8.96907695       4.48453848        2
N        0.00000000      11.21134619       4.48453848        2
N        0.00000000       8.96907695       6.72680771        2
Nb       0.00000000       8.96907695       8.96907695        1
Hf       0.00000000      11.21134619      11.21134619        1
Nb       2.24226924       8.96907695      11.21134619        1
Zr       2.24226924      11.21134619       8.96907695        1
N        2.24226924      11.21134619      11.21134619        2
N        2.24226924       8.96907695       8.96907695        2
N        0.00000000      11.21134619       8.96907695        2
N        0.00000000       8.96907695      11.21134619        2
Hf       4.48453848       0.00000000       0.00000000        1
Ta       4.48453848       2.24226924       2.24226924        1
Ti       6.72680771       0.00000000       2.24226924        1
Ta       6.72680771       2.24226924       0.00000000        1
N        6.72680771       2.24226924       2.24226924        2
N        6.72680771       0.00000000       0.00000000        2
N        4.48453848       2.24226924       0.00000000        2
N        4.48453848       0.00000000       2.24226924        2
Hf       4.48453848       0.00000000       4.48453848        1
Zr       4.48453848       2.24226924       6.72680771        1
Ta       6.72680771       0.00000000       6.72680771        1
Zr       6.72680771       2.24226924       4.48453848        1
N        6.72680771       2.24226924       6.72680771        2
N        6.72680771       0.00000000       4.48453848        2
N        4.48453848       2.24226924       4.48453848        2
N        4.48453848       0.00000000       6.72680771        2
Nb       4.48453848       0.00000000       8.96907695        1
Ti       4.48453848       2.24226924      11.21134619        1
Nb       6.72680771       0.00000000      11.21134619        1
Zr       6.72680771       2.24226924       8.96907695        1
N        6.72680771       2.24226924      11.21134619        2
N        6.72680771       0.00000000       8.96907695        2
N        4.48453848       2.24226924       8.96907695        2
N        4.48453848       0.00000000      11.21134619        2
Ta       4.48453848       4.48453848       0.00000000        1
Hf       4.48453848       6.72680771       2.24226924        1
Zr       6.72680771       4.48453848       2.24226924        1
Hf       6.72680771       6.72680771       0.00000000        1
N        6.72680771       6.72680771       2.24226924        2
N        6.72680771       4.48453848       0.00000000        2
N        4.48453848       6.72680771       0.00000000        2
N        4.48453848       4.48453848       2.24226924        2
Ti       4.48453848       4.48453848       4.48453848        1
Zr       4.48453848       6.72680771       6.72680771        1
Hf       6.72680771       4.48453848       6.72680771        1
Nb       6.72680771       6.72680771       4.48453848        1
N        6.72680771       6.72680771       6.72680771        2
N        6.72680771       4.48453848       4.48453848        2
N        4.48453848       6.72680771       4.48453848        2
N        4.48453848       4.48453848       6.72680771        2
Hf       4.48453848       4.48453848       8.96907695        1
Ti       4.48453848       6.72680771      11.21134619        1
Nb       6.72680771       4.48453848      11.21134619        1
Hf       6.72680771       6.72680771       8.96907695        1
N        6.72680771       6.72680771      11.21134619        2
N        6.72680771       4.48453848       8.96907695        2
N        4.48453848       6.72680771       8.96907695        2
N        4.48453848       4.48453848      11.21134619        2
Ta       4.48453848       8.96907695       0.00000000        1
Hf       4.48453848      11.21134619       2.24226924        1
Ta       6.72680771       8.96907695       2.24226924        1
Zr       6.72680771      11.21134619       0.00000000        1
N        6.72680771      11.21134619       2.24226924        2
N        6.72680771       8.96907695       0.00000000        2
N        4.48453848      11.21134619       0.00000000        2
N        4.48453848       8.96907695       2.24226924        2
Ti       4.48453848       8.96907695       4.48453848        1
Nb       4.48453848      11.21134619       6.72680771        1
Zr       6.72680771       8.96907695       6.72680771        1
Hf       6.72680771      11.21134619       4.48453848        1
N        6.72680771      11.21134619       6.72680771        2
N        6.72680771       8.96907695       4.48453848        2
N        4.48453848      11.21134619       4.48453848        2
N        4.48453848       8.96907695       6.72680771        2
Nb       4.48453848       8.96907695       8.96907695        1
Hf       4.48453848      11.21134619      11.21134619        1
Zr       6.72680771       8.96907695      11.21134619        1
Zr       6.72680771      11.21134619       8.96907695        1
N        6.72680771      11.21134619      11.21134619        2
N        6.72680771       8.96907695       8.96907695        2
N        4.48453848      11.21134619       8.96907695        2
N        4.48453848       8.96907695      11.21134619        2
Hf       8.96907695       0.00000000       0.00000000        1
Nb       8.96907695       2.24226924       2.24226924        1
Nb      11.21134619       0.00000000       2.24226924        1
Hf      11.21134619       2.24226924       0.00000000        1
N       11.21134619       2.24226924       2.24226924        2
N       11.21134619       0.00000000       0.00000000        2
N        8.96907695       2.24226924       0.00000000        2
N        8.96907695       0.00000000       2.24226924        2
Ta       8.96907695       0.00000000       4.48453848        1
Ti       8.96907695       2.24226924       6.72680771        1
Hf      11.21134619       0.00000000       6.72680771        1
Hf      11.21134619       2.24226924       4.48453848        1
N       11.21134619       2.24226924       6.72680771        2
N       11.21134619       0.00000000       4.48453848        2
N        8.96907695       2.24226924       4.48453848        2
N        8.96907695       0.00000000       6.72680771        2
Hf       8.96907695       0.00000000       8.96907695        1
Ta       8.96907695       2.24226924      11.21134619        1
Ti      11.21134619       0.00000000      11.21134619        1
Ti      11.21134619       2.24226924       8.96907695        1
N       11.21134619       2.24226924      11.21134619        2
N       11.21134619       0.00000000       8.96907695        2
N        8.96907695       2.24226924       8.96907695        2
N        8.96907695       0.00000000      11.21134619        2
Hf       8.96907695       4.48453848       0.00000000        1
Ta       8.96907695       6.72680771       2.24226924        1
Ta      11.21134619       4.48453848       2.24226924        1
Ti      11.21134619       6.72680771       0.00000000        1
N       11.21134619       6.72680771       2.24226924        2
N       11.21134619       4.48453848       0.00000000        2
N        8.96907695       6.72680771       0.00000000        2
N        8.96907695       4.48453848       2.24226924        2
Ti       8.96907695       4.48453848       4.48453848        1
Ta       8.96907695       6.72680771       6.72680771        1
Ta      11.21134619       4.48453848       6.72680771        1
Ti      11.21134619       6.72680771       4.48453848        1
N       11.21134619       6.72680771       6.72680771        2
N       11.21134619       4.48453848       4.48453848        2
N        8.96907695       6.72680771       4.48453848        2
N        8.96907695       4.48453848       6.72680771        2
Nb       8.96907695       4.48453848       8.96907695        1
Hf       8.96907695       6.72680771      11.21134619        1
Zr      11.21134619       4.48453848      11.21134619        1
Zr      11.21134619       6.72680771       8.96907695        1
N       11.21134619       6.72680771      11.21134619        2
N       11.21134619       4.48453848       8.96907695        2
N        8.96907695       6.72680771       8.96907695        2
N        8.96907695       4.48453848      11.21134619        2
Ta       8.96907695       8.96907695       0.00000000        1
Zr       8.96907695      11.21134619       2.24226924        1
Zr      11.21134619       8.96907695       2.24226924        1
Ti      11.21134619      11.21134619       0.00000000        1
N       11.21134619      11.21134619       2.24226924        2
N       11.21134619       8.96907695       0.00000000        2
N        8.96907695      11.21134619       0.00000000        2
N        8.96907695       8.96907695       2.24226924        2
Zr       8.96907695       8.96907695       4.48453848        1
Nb       8.96907695      11.21134619       6.72680771        1
Nb      11.21134619       8.96907695       6.72680771        1
Ti      11.21134619      11.21134619       4.48453848        1
N       11.21134619      11.21134619       6.72680771        2
N       11.21134619       8.96907695       4.48453848        2
N        8.96907695      11.21134619       4.48453848        2
N        8.96907695       8.96907695       6.72680771        2
Ti       8.96907695       8.96907695       8.96907695        1
Ta       8.96907695      11.21134619      11.21134619        1
Nb      11.21134619       8.96907695      11.21134619        1
Ti      11.21134619      11.21134619       8.96907695        1
N       11.21134619      11.21134619      11.21134619        2
N       11.21134619       8.96907695       8.96907695        2
N        8.96907695      11.21134619       8.96907695        2
N        8.96907695       8.96907695      11.21134619        2
216
Lattice="13.453615425789224 0.0 0.0 0.0 13.453615425789224 0.0 0.0 0.0 13.453615425789224" Properties=species:S:1:pos:R:3:tags:I:1 sqs_abs_alpha=0.12607859672794738 energy=-2238.7101888220027 mc_step=500 energy_method=uma rosenbluth_W_new=5.624451749665899 rosenbluth_W_old=4.94776444201646 pbc="T T T"
Nb       0.00000000       0.00000000       0.00000000        1
Hf       0.00000000       2.24226924       2.24226924        1
Ti       2.24226924       0.00000000       2.24226924        1
Ta       2.24226924       2.24226924       0.00000000        1
N        2.24226924       2.24226924       2.24226924        2
N        2.24226924       0.00000000       0.00000000        2
N        0.00000000       2.24226924       0.00000000        2
N        0.00000000       0.00000000       2.24226924        2
Hf       0.00000000       0.00000000       4.48453848        1
Hf       0.00000000       2.24226924       6.72680771        1
Nb       2.24226924       0.00000000       6.72680771        1
Ta       2.24226924       2.24226924       4.48453848        1
N        2.24226924       2.24226924       6.72680771        2
N        2.24226924       0.00000000       4.48453848        2
N        0.00000000       2.24226924       4.48453848        2
N        0.00000000       0.00000000       6.72680771        2
Ti       0.00000000       0.00000000       8.96907695        1
Nb       0.00000000       2.24226924      11.21134619        1
Ti       2.24226924       0.00000000      11.21134619        1
Ti       2.24226924       2.24226924       8.96907695        1
N        2.24226924       2.24226924      11.21134619        2
N        2.24226924       0.00000000       8.96907695        2
N        0.00000000       2.24226924       8.96907695        2
N        0.00000000       0.00000000      11.21134619        2
Ti       0.00000000       4.48453848       0.00000000        1
Nb       0.00000000       6.72680771       2.24226924        1
Ti       2.24226924       4.48453848       2.24226924        1
Zr       2.24226924       6.72680771       0.00000000        1
N        2.24226924       6.72680771       2.24226924        2
N        2.24226924       4.48453848       0.00000000        2
N        0.00000000       6.72680771       0.00000000        2
N        0.00000000       4.48453848       2.24226924        2
Ta       0.00000000       4.48453848       4.48453848        1
Zr       0.00000000       6.72680771       6.72680771        1
Ta       2.24226924       4.48453848       6.72680771        1
Zr       2.24226924       6.72680771       4.48453848        1
N        2.24226924       6.72680771       6.72680771        2
N        2.24226924       4.48453848       4.48453848        2
N        0.00000000       6.72680771       4.48453848        2
N        0.00000000       4.48453848       6.72680771        2
Hf       0.00000000       4.48453848       8.96907695        1
Ta       0.00000000       6.72680771      11.21134619        1
Hf       2.24226924       4.48453848      11.21134619        1
Zr       2.24226924       6.72680771       8.96907695        1
N        2.24226924       6.72680771      11.21134619        2
N        2.24226924       4.48453848       8.96907695        2
N        0.00000000       6.72680771       8.96907695        2
N        0.00000000       4.48453848      11.21134619        2
Zr       0.00000000       8.96907695       0.00000000        1
Nb       0.00000000      11.21134619       2.24226924        1
Hf       2.24226924       8.96907695       2.24226924        1
Hf       2.24226924      11.21134619       0.00000000        1
N        2.24226924      11.21134619       2.24226924        2
N        2.24226924       8.96907695       0.00000000        2
N        0.00000000      11.21134619       0.00000000        2
N        0.00000000       8.96907695       2.24226924        2
Ta       0.00000000       8.96907695       4.48453848        1
Ta       0.00000000      11.21134619       6.72680771        1
Hf       2.24226924       8.96907695       6.72680771        1
Ta       2.24226924      11.21134619       4.48453848        1
N        2.24226924      11.21134619       6.72680771        2
N        2.24226924       8.96907695       4.48453848        2
N        0.00000000      11.21134619       4.48453848        2
N        0.00000000       8.96907695       6.72680771        2
Nb       0.00000000       8.96907695       8.96907695        1
Hf       0.00000000      11.21134619      11.21134619        1
Nb       2.24226924       8.96907695      11.21134619        1
Zr       2.24226924      11.21134619       8.96907695        1
N        2.24226924      11.21134619      11.21134619        2
N        2.24226924       8.96907695       8.96907695        2
N        0.00000000      11.21134619       8.96907695        2
N        0.00000000       8.96907695      11.21134619        2
Zr       4.48453848       0.00000000       0.00000000        1
Ta       4.48453848       2.24226924       2.24226924        1
Ti       6.72680771       0.00000000       2.24226924        1
Nb       6.72680771       2.24226924       0.00000000        1
N        6.72680771       2.24226924       2.24226924        2
N        6.72680771       0.00000000       0.00000000        2
N        4.48453848       2.24226924       0.00000000        2
N        4.48453848       0.00000000       2.24226924        2
Zr       4.48453848       0.00000000       4.48453848        1
Ti       4.48453848       2.24226924       6.72680771        1
Ta       6.72680771       0.00000000       6.72680771        1
Hf       6.72680771       2.24226924       4.48453848        1
N        6.72680771       2.24226924       6.72680771        2
N        6.72680771       0.00000000       4.48453848        2
N        4.48453848       2.24226924       4.48453848        2
N        4.48453848       0.00000000       6.72680771        2
Ta       4.48453848       0.00000000       8.96907695        1
Hf       4.48453848       2.24226924      11.21134619        1
Ta       6.72680771       0.00000000      11.21134619        1
Zr       6.72680771       2.24226924       8.96907695        1
N        6.72680771       2.24226924      11.21134619        2
N        6.72680771       0.00000000       8.96907695        2
N        4.48453848       2.24226924       8.96907695        2
N        4.48453848       0.00000000      11.21134619        2
Nb       4.48453848       4.48453848       0.00000000        1
Ta       4.48453848       6.72680771       2.24226924        1
Zr       6.72680771       4.48453848       2.24226924        1
Hf       6.72680771       6.72680771       0.00000000        1
N        6.72680771       6.72680771       2.24226924        2
N        6.72680771       4.48453848       0.00000000        2
N        4.48453848       6.72680771       0.00000000        2
N        4.48453848       4.48453848       2.24226924        2
Ti       4.48453848       4.48453848       4.48453848        1
Ta       4.48453848       6.72680771       6.72680771        1
Hf       6.72680771       4.48453848       6.72680771        1
Nb       6.72680771       6.72680771       4.48453848        1
N        6.72680771       6.72680771       6.72680771        2
N        6.72680771       4.48453848       4.48453848        2
N        4.48453848       6.72680771       4.48453848        2
N        4.48453848       4.48453848       6.72680771        2
Ti       4.48453848       4.48453848       8.96907695        1
Ti       4.48453848       6.72680771      11.21134619        1
Nb       6.72680771       4.48453848      11.21134619        1
Zr       6.72680771       6.72680771       8.96907695        1
N        6.72680771       6.72680771      11.21134619        2
N        6.72680771       4.48453848       8.96907695        2
N        4.48453848       6.72680771       8.96907695        2
N        4.48453848       4.48453848      11.21134619        2
Zr       4.48453848       8.96907695       0.00000000        1
Hf       4.48453848      11.21134619       2.24226924        1
Nb       6.72680771       8.96907695       2.24226924        1
Ta       6.72680771      11.21134619       0.00000000        1
N        6.72680771      11.21134619       2.24226924        2
N        6.72680771       8.96907695       0.00000000        2
N        4.48453848      11.21134619       0.00000000        2
N        4.48453848       8.96907695       2.24226924        2
Ti       4.48453848       8.96907695       4.48453848        1
Nb       4.48453848      11.21134619       6.72680771        1
Zr       6.72680771       8.96907695       6.72680771        1
Zr       6.72680771      11.21134619       4.48453848        1
N        6.72680771      11.21134619       6.72680771        2
N        6.72680771       8.96907695       4.48453848        2
N        4.48453848      11.21134619       4.48453848        2
N        4.48453848       8.96907695       6.72680771        2
Nb       4.48453848       8.96907695       8.96907695        1
Ta       4.48453848      11.21134619      11.21134619        1
Zr       6.72680771       8.96907695      11.21134619        1
Zr       6.72680771      11.21134619       8.96907695        1
N        6.72680771      11.21134619      11.21134619        2
N        6.72680771       8.96907695       8.96907695        2
N        4.48453848      11.21134619       8.96907695        2
N        4.48453848       8.96907695      11.21134619        2
Hf       8.96907695       0.00000000       0.00000000        1
Ti       8.96907695       2.24226924       2.24226924        1
Ti      11.21134619       0.00000000       2.24226924        1
Hf      11.21134619       2.24226924       0.00000000        1
N       11.21134619       2.24226924       2.24226924        2
N       11.21134619       0.00000000       0.00000000        2
N        8.96907695       2.24226924       0.00000000        2
N        8.96907695       0.00000000       2.24226924        2
Nb       8.96907695       0.00000000       4.48453848        1
Ti       8.96907695       2.24226924       6.72680771        1
Hf      11.21134619       0.00000000       6.72680771        1
Hf      11.21134619       2.24226924       4.48453848        1
N       11.21134619       2.24226924       6.72680771        2
N       11.21134619       0.00000000       4.48453848        2
N        8.96907695       2.24226924       4.48453848        2
N        8.96907695       0.00000000       6.72680771        2
Ti       8.96907695       0.00000000       8.96907695        1
Zr       8.96907695       2.24226924      11.21134619        1
Nb      11.21134619       0.00000000      11.21134619        1
Nb      11.21134619       2.24226924       8.96907695        1
N       11.21134619       2.24226924      11.21134619        2
N       11.21134619       0.00000000       8.96907695        2
N        8.96907695       2.24226924       8.96907695        2
N        8.96907695       0.00000000      11.21134619        2
Ti       8.96907695       4.48453848       0.00000000        1
Ta       8.96907695       6.72680771       2.24226924        1
Hf      11.21134619       4.48453848       2.24226924        1
Hf      11.21134619       6.72680771       0.00000000        1
N       11.21134619       6.72680771       2.24226924        2
N       11.21134619       4.48453848       0.00000000        2
N        8.96907695       6.72680771       0.00000000        2
N        8.96907695       4.48453848       2.24226924        2
Ti       8.96907695       4.48453848       4.48453848        1
Ta       8.96907695       6.72680771       6.72680771        1
Ta      11.21134619       4.48453848       6.72680771        1
Ti      11.21134619       6.72680771       4.48453848        1
N       11.21134619       6.72680771       6.72680771        2
N       11.21134619       4.48453848       4.48453848        2
N        8.96907695       6.72680771       4.48453848        2
N        8.96907695       4.48453848       6.72680771        2
Nb       8.96907695       4.48453848       8.96907695        1
Zr       8.96907695       6.72680771      11.21134619        1
Zr      11.21134619       4.48453848      11.21134619        1
Nb      11.21134619       6.72680771       8.96907695        1
N       11.21134619       6.72680771      11.21134619        2
N       11.21134619       4.48453848       8.96907695        2
N        8.96907695       6.72680771       8.96907695        2
N        8.96907695       4.48453848      11.21134619        2
Ta       8.96907695       8.96907695       0.00000000        1
Zr       8.96907695      11.21134619       2.24226924        1
Zr      11.21134619       8.96907695       2.24226924        1
Nb      11.21134619      11.21134619       0.00000000        1
N       11.21134619      11.21134619       2.24226924        2
N       11.21134619       8.96907695       0.00000000        2
N        8.96907695      11.21134619       0.00000000        2
N        8.96907695       8.96907695       2.24226924        2
Zr       8.96907695       8.96907695       4.48453848        1
Ti       8.96907695      11.21134619       6.72680771        1
Hf      11.21134619       8.96907695       6.72680771        1
Ti      11.21134619      11.21134619       4.48453848        1
N       11.21134619      11.21134619       6.72680771        2
N       11.21134619       8.96907695       4.48453848        2
N        8.96907695      11.21134619       4.48453848        2
N        8.96907695       8.96907695       6.72680771        2
Nb       8.96907695       8.96907695       8.96907695        1
Ta       8.96907695      11.21134619      11.21134619        1
Ti      11.21134619       8.96907695      11.21134619        1
Hf      11.21134619      11.21134619       8.96907695        1
N       11.21134619      11.21134619      11.21134619        2
N       11.21134619       8.96907695       8.96907695        2
N        8.96907695      11.21134619       8.96907695        2
N        8.96907695       8.96907695      11.21134619        2
