216
Lattice="13.453615425789224 0.0 0.0 0.0 13.453615425789224 0.0 0.0 0.0 13.453615425789224" Properties=species:S:1:pos:R:3:tags:I:1 sqs_abs_alpha=0.0955877888345421 energy=-2238.4190701721577 mc_step=100 energy_method=uma rosenbluth_W_new=4.600080360025066 rosenbluth_W_old=4.9728732336897785 pbc="T T T"
Nb       0.00000000       0.00000000       0.00000000        1
Ti       0.00000000       2.24226924       2.24226924        1
Ta       2.24226924       0.00000000       2.24226924        1
Zr       2.24226924       2.24226924       0.00000000        1
N        2.24226924       2.24226924       2.24226924        2
N        2.24226924       0.00000000       0.00000000        2
N        0.00000000       2.24226924       0.00000000        2
N        0.00000000       0.00000000       2.24226924        2
Ti       0.00000000       0.00000000       4.48453848        1
Hf       0.00000000       2.24226924       6.72680771        1
Zr       2.24226924       0.00000000       6.72680771        1
Nb       2.24226924       2.24226924       4.48453848        1
N        2.24226924       2.24226924       6.72680771        2
N        2.24226924       0.00000000       4.48453848        2
N        0.00000000       2.24226924       4.48453848        2
N        0.00000000       0.00000000       6.72680771        2
Nb       0.00000000       0.00000000       8.96907695        1
Ta       0.00000000       2.24226924      11.21134619        1
Nb       2.24226924       0.00000000      11.21134619        1
Ta       2.24226924       2.24226924       8.96907695        1
N        2.24226924       2.24226924      11.21134619        2
N        2.24226924       0.00000000       8.96907695        2
N        0.00000000       2.24226924       8.96907695        2
N        0.00000000       0.00000000      11.21134619        2
Hf       0.00000000       4.48453848       0.00000000        1
Hf       0.00000000       6.72680771       2.24226924        1
Ta       2.24226924       4.48453848       2.24226924        1
Nb       2.24226924       6.72680771       0.00000000        1
N        2.24226924       6.72680771       2.24226924        2
N        2.24226924       4.48453848       0.00000000        2
N        0.00000000       6.72680771       0.00000000        2
N        0.00000000       4.48453848       2.24226924        2
Nb       0.00000000       4.48453848       4.48453848        1
Zr       0.00000000       6.72680771       6.72680771        1
Nb       2.24226924       4.48453848       6.72680771        1
Hf       2.24226924       6.72680771       4.48453848        1
N        2.24226924       6.72680771       6.72680771        2
N        2.24226924       4.48453848       4.48453848        2
N        0.00000000       6.72680771       4.48453848        2
N        0.00000000       4.48453848       6.72680771        2
Ti       0.00000000       4.48453848       8.96907695        1
Nb       0.00000000       6.72680771      11.21134619        1
Zr       2.24226924       4.48453848      11.21134619        1
Zr       2.24226924       6.72680771       8.96907695        1
N        2.24226924       6.72680771      11.21134619        2
N        2.24226924       4.48453848       8.96907695        2
N        0.00000000       6.72680771       8.96907695        2
N        0.00000000       4.48453848      11.21134619        2
Hf       0.00000000       8.96907695       0.00000000        1
Ta       0.00000000      11.21134619       2.24226924        1
Nb       2.24226924       8.96907695       2.24226924        1
Hf       2.24226924      11.21134619       0.00000000        1
N        2.24226924      11.21134619       2.24226924        2
N        2.24226924       8.96907695       0.00000000        2
N        0.00000000      11.21134619       0.00000000        2
N        0.00000000       8.96907695       2.24226924        2
Ti       0.00000000       8.96907695       4.48453848        1
Ta       0.00000000      11.21134619       6.72680771        1
Ti       2.24226924       8.96907695       6.72680771        1
Hf       2.24226924      11.21134619       4.48453848        1
N        2.24226924      11.21134619       6.72680771        2
N        2.24226924       8.96907695       4.48453848        2
N        0.00000000      11.21134619       4.48453848        2
N        0.00000000       8.96907695       6.72680771        2
Nb       0.00000000       8.96907695       8.96907695        1
Hf       0.00000000      11.21134619      11.21134619        1
Zr       2.24226924       8.96907695      11.21134619        1
Nb       2.24226924      11.21134619       8.96907695        1
N        2.24226924      11.21134619      11.21134619        2
N        2.24226924       8.96907695       8.96907695        2
N        0.00000000      11.21134619       8.96907695        2
N        0.00000000       8.96907695      11.21134619        2
Hf       4.48453848       0.00000000       0.00000000        1
Hf       4.48453848       2.24226924       2.24226924        1
Hf       6.72680771       0.00000000       2.24226924        1
Ta       6.72680771       2.24226924       0.00000000        1
N        6.72680771       2.24226924       2.24226924        2
N        6.72680771       0.00000000       0.00000000        2
N        4.48453848       2.24226924       0.00000000        2
N        4.48453848       0.00000000       2.24226924        2
Ti       4.48453848       0.00000000       4.48453848        1
Ti       4.48453848       2.24226924       6.72680771        1
Ta       6.72680771       0.00000000       6.72680771        1
Nb       6.72680771       2.24226924       4.48453848        1
N        6.72680771       2.24226924       6.72680771        2
N        6.72680771       0.00000000       4.48453848        2
N        4.48453848       2.24226924       4.48453848        2
N        4.48453848       0.00000000       6.72680771        2
Zr       4.48453848       0.00000000       8.96907695        1
Zr       4.48453848       2.24226924      11.21134619        1
Hf       6.72680771       0.00000000      11.21134619        1
Zr       6.72680771       2.24226924       8.96907695        1
N        6.72680771       2.24226924      11.21134619        2
N        6.72680771       0.00000000       8.96907695        2
N        4.48453848       2.24226924       8.96907695        2
N        4.48453848       0.00000000      11.21134619        2
Ti       4.48453848       4.48453848       0.00000000        1
Nb       4.48453848       6.72680771       2.24226924        1
Ta       6.72680771       4.48453848       2.24226924        1
Nb       6.72680771       6.72680771       0.00000000        1
N        6.72680771       6.72680771       2.24226924        2
N        6.72680771       4.48453848       0.00000000        2
N        4.48453848       6.72680771       0.00000000        2
N        4.48453848       4.48453848       2.24226924        2
Zr       4.48453848       4.48453848       4.48453848        1
Zr       4.48453848       6.72680771       6.72680771        1
Nb       6.72680771       4.48453848       6.72680771        1
Zr       6.72680771       6.72680771       4.48453848        1
N        6.72680771       6.72680771       6.72680771        2
N        6.72680771       4.48453848       4.48453848        2
N        4.48453848       6.72680771       4.48453848        2
N        4.48453848       4.48453848       6.72680771        2
Ta       4.48453848       4.48453848       8.96907695        1
Zr       4.48453848       6.72680771      11.21134619        1
Zr       6.72680771       4.48453848      11.21134619        1
Ta       6.72680771       6.72680771       8.96907695        1
N        6.72680771       6.72680771      11.21134619        2
N        6.72680771       4.48453848       8.96907695        2
N        4.48453848       6.72680771       8.96907695        2
N        4.48453848       4.48453848      11.21134619        2
Ti       4.48453848       8.96907695       0.00000000        1
Ta       4.48453848      11.21134619       2.24226924        1
Zr       6.72680771       8.96907695       2.24226924        1
Zr       6.72680771      11.21134619       0.00000000        1
N        6.72680771      11.21134619       2.24226924        2
N        6.72680771       8.96907695       0.00000000        2
N        4.48453848      11.21134619       0.00000000        2
N        4.48453848       8.96907695       2.24226924        2
Ta       4.48453848       8.96907695       4.48453848        1
Ti       4.48453848      11.21134619       6.72680771        1
Ti       6.72680771       8.96907695       6.72680771        1
Ta       6.72680771      11.21134619       4.48453848        1
N        6.72680771      11.21134619       6.72680771        2
N        6.72680771       8.96907695       4.48453848        2
N        4.48453848      11.21134619       4.48453848        2
N        4.48453848       8.96907695       6.72680771        2
Ta       4.48453848       8.96907695       8.96907695        1
Ti       4.48453848      11.21134619      11.21134619        1
Ta       6.72680771       8.96907695      11.21134619        1
Nb       6.72680771      11.21134619       8.96907695        1
N        6.72680771      11.21134619      11.21134619        2
N        6.72680771       8.96907695       8.96907695        2
N        4.48453848      11.21134619       8.96907695        2
N        4.48453848       8.96907695      11.21134619        2
Ta       8.96907695       0.00000000       0.00000000        1
Ta       8.96907695       2.24226924       2.24226924        1
Ti      11.21134619       0.00000000       2.24226924        1
Hf      11.21134619       2.24226924       0.00000000        1
N       11.21134619       2.24226924       2.24226924        2
N       11.21134619       0.00000000       0.00000000        2
N        8.96907695       2.24226924       0.00000000        2
N        8.96907695       0.00000000       2.24226924        2
Zr       8.96907695       0.00000000       4.48453848        1
Ti       8.96907695       2.24226924       6.72680771        1
Nb      11.21134619       0.00000000       6.72680771        1
Hf      11.21134619       2.24226924       4.48453848        1
N       11.21134619       2.24226924       6.72680771        2
N       11.21134619       0.00000000       4.48453848        2
N        8.96907695       2.24226924       4.48453848        2
N        8.96907695       0.00000000       6.72680771        2
Hf       8.96907695       0.00000000       8.96907695        1
Ta       8.96907695       2.24226924      11.21134619        1
Ti      11.21134619       0.00000000      11.21134619        1
Ti      11.21134619       2.24226924       8.96907695        1
N       11.21134619       2.24226924      11.21134619        2
N       11.21134619       0.00000000       8.96907695        2
N        8.96907695       2.24226924       8.96907695        2
N        8.96907695       0.00000000      11.21134619        2
Nb       8.96907695       4.48453848       0.00000000        1
Zr       8.96907695       6.72680771       2.24226924        1
Zr      11.21134619       4.48453848       2.24226924        1
Ti      11.21134619       6.72680771       0.00000000        1
N       11.21134619       6.72680771       2.24226924        2
N       11.21134619       4.48453848       0.00000000        2
N        8.96907695       6.72680771       0.00000000        2
N        8.96907695       4.48453848       2.24226924        2
Ti       8.96907695       4.48453848       4.48453848        1
Zr       8.96907695       6.72680771       6.72680771        1
Hf      11.21134619       4.48453848       6.72680771        1
Ti      11.21134619       6.72680771       4.48453848        1
N       11.21134619       6.72680771       6.72680771        2
N       11.21134619       4.48453848       4.48453848        2
N        8.96907695       6.72680771       4.48453848        2
N        8.96907695       4.48453848       6.72680771        2
Ti       8.96907695       4.48453848       8.96907695        1
Nb       8.96907695       6.72680771      11.21134619        1
Hf      11.21134619       4.48453848      11.21134619        1
Hf      11.21134619       6.72680771       8.96907695        1
N       11.21134619       6.72680771      11.21134619        2
N       11.21134619       4.48453848       8.96907695        2
N        8.96907695       6.72680771       8.96907695        2
N        8.96907695       4.48453848      11.21134619        2
Hf       8.96907695       8.96907695       0.00000000        1
Ti       8.96907695      11.21134619       2.24226924        1
Ta      11.21134619       8.96907695       2.24226924        1
Zr      11.21134619      11.21134619       0.00000000        1
N       11.21134619      11.21134619       2.24226924        2
N       11.21134619       8.96907695       0.00000000        2
N        8.96907695      11.21134619       0.00000000        2
N        8.96907695       8.96907695       2.24226924        2
Ta       8.96907695       8.96907695       4.48453848        1
Nb       8.96907695      11.21134619       6.72680771        1
Hf      11.21134619       8.96907695       6.72680771        1
Zr      11.21134619      11.21134619       4.48453848        1
N       11.21134619      11.21134619       6.72680771        2
N       11.21134619       8.96907695       4.48453848        2
N        8.96907695      11.21134619       4.48453848        2
N        8.96907695       8.96907695       6.72680771        2
Hf       8.96907695       8.96907695       8.96907695        1
Hf       8.96907695      11.21134619      11.21134619        1
Ti      11.21134619       8.96907695      11.21134619        1
Nb      11.21134619      11.21134619       8.96907695        1
N       11.21134619      11.21134619      11.21134619        2
N       11.21134619       8.96907695       8.96907695        2
N        8.96907695      11.21134619       8.96907695        2
N        8.96907695       8.96907695      11.21134619        2
216
Lattice="13.453615425789224 0.0 0.0 0.0 13.453615425789224 0.0 0.0 0.0 13.453615425789224" Properties=species:S:1:pos:R:3:tags:I:1 sqs_abs_alpha=0.10881092933040984 energy=-2238.339106726394 mc_step=150 energy_method=uma rosenbluth_W_new=2.657009924611577 rosenbluth_W_old=3.726233501048468 pbc="T T T"
Zr       0.00000000       0.00000000       0.00000000        1
Ti       0.00000000       2.24226924       2.24226924        1
Ta       2.24226924       0.00000000       2.24226924        1
Hf       2.24226924       2.24226924       0.00000000        1
N        2.24226924       2.24226924       2.24226924        2
N        2.24226924       0.00000000       0.00000000        2
N        0.00000000       2.24226924       0.00000000        2
N        0.00000000       0.00000000       2.24226924        2
Nb       0.00000000       0.00000000       4.48453848        1
Hf       0.00000000       2.24226924       6.72680771        1
Zr       2.24226924       0.00000000       6.72680771        1
Nb       2.24226924       2.24226924       4.48453848        1
N        2.24226924       2.24226924       6.72680771        2
N        2.24226924       0.00000000       4.48453848        2
N        0.00000000       2.24226924       4.48453848        2
N        0.00000000       0.00000000       6.72680771        2
Ti       0.00000000       0.00000000       8.96907695        1
Ti       0.00000000       2.24226924      11.21134619        1
Ta       2.24226924       0.00000000      11.21134619        1
Ta       2.24226924       2.24226924       8.96907695        1
N        2.24226924       2.24226924      11.21134619        2
N        2.24226924       0.00000000       8.96907695        2
N        0.00000000       2.24226924       8.96907695        2
N        0.00000000       0.00000000      11.21134619        2
Zr       0.00000000       4.48453848       0.00000000        1
Hf       0.00000000       6.72680771       2.24226924        1
Zr       2.24226924       4.48453848       2.24226924        1
Nb       2.24226924       6.72680771       0.00000000        1
N        2.24226924       6.72680771       2.24226924        2
N        2.24226924       4.48453848       0.00000000        2
N        0.00000000       6.72680771       0.00000000        2
N        0.00000000       4.48453848       2.24226924        2
Nb       0.00000000       4.48453848       4.48453848        1
Zr       0.00000000       6.72680771       6.72680771        1
Hf       2.24226924       4.48453848       6.72680771        1
Zr       2.24226924       6.72680771       4.48453848        1
N        2.24226924       6.72680771       6.72680771        2
N        2.24226924       4.48453848       4.48453848        2
N        0.00000000       6.72680771       4.48453848        2
N        0.00000000       4.48453848       6.72680771        2
Ti       0.00000000       4.48453848       8.96907695        1
Ta       0.00000000       6.72680771      11.21134619        1
Nb       2.24226924       4.48453848      11.21134619        1
Ta       2.24226924       6.72680771       8.96907695        1
N        2.24226924       6.72680771      11.21134619        2
N        2.24226924       4.48453848       8.96907695        2
N        0.00000000       6.72680771       8.96907695        2
N        0.00000000       4.48453848      11.21134619        2
Hf       0.00000000       8.96907695       0.00000000        1
Ta       0.00000000      11.21134619       2.24226924        1
Nb       2.24226924       8.96907695       2.24226924        1
Hf       2.24226924      11.21134619       0.00000000        1
N        2.24226924      11.21134619       2.24226924        2
N        2.24226924       8.96907695       0.00000000        2
N        0.00000000      11.21134619       0.00000000        2
N        0.00000000       8.96907695       2.24226924        2
Ti       0.00000000       8.96907695       4.48453848        1
Ta       0.00000000      11.21134619       6.72680771        1
Ta       2.24226924       8.96907695       6.72680771        1
Hf       2.24226924      11.21134619       4.48453848        1
N        2.24226924      11.21134619       6.72680771        2
N        2.24226924       8.96907695       4.48453848        2
N        0.00000000      11.21134619       4.48453848        2
N        0.00000000       8.96907695       6.72680771        2
Nb       0.00000000       8.96907695       8.96907695        1
Hf       0.00000000      11.21134619      11.21134619        1
Zr       2.24226924       8.96907695      11.21134619        1
Nb       2.24226924      11.21134619       8.96907695        1
N        2.24226924      11.21134619      11.21134619        2
N        2.24226924       8.96907695       8.96907695        2
N        0.00000000      11.21134619       8.96907695        2
N        0.00000000       8.96907695      11.21134619        2
Nb       4.48453848       0.00000000       0.00000000        1
Hf       4.48453848       2.24226924       2.24226924        1
Hf       6.72680771       0.00000000       2.24226924        1
Ta       6.72680771       2.24226924       0.00000000        1
N        6.72680771       2.24226924       2.24226924        2
N        6.72680771       0.00000000       0.00000000        2
N        4.48453848       2.24226924       0.00000000        2
N        4.48453848       0.00000000       2.24226924        2
Ta       4.48453848       0.00000000       4.48453848        1
Ti       4.48453848       2.24226924       6.72680771        1
Ti       6.72680771       0.00000000       6.72680771        1
Zr       6.72680771       2.24226924       4.48453848        1
N        6.72680771       2.24226924       6.72680771        2
N        6.72680771       0.00000000       4.48453848        2
N        4.48453848       2.24226924       4.48453848        2
N        4.48453848       0.00000000       6.72680771        2
Zr       4.48453848       0.00000000       8.96907695        1
Zr       4.48453848       2.24226924      11.21134619        1
Hf       6.72680771       0.00000000      11.21134619        1
Zr       6.72680771       2.24226924       8.96907695        1
N        6.72680771       2.24226924      11.21134619        2
N        6.72680771       0.00000000       8.96907695        2
N        4.48453848       2.24226924       8.96907695        2
N        4.48453848       0.00000000      11.21134619        2
Hf       4.48453848       4.48453848       0.00000000        1
Nb       4.48453848       6.72680771       2.24226924        1
Ta       6.72680771       4.48453848       2.24226924        1
Ti       6.72680771       6.72680771       0.00000000        1
N        6.72680771       6.72680771       2.24226924        2
N        6.72680771       4.48453848       0.00000000        2
N        4.48453848       6.72680771       0.00000000        2
N        4.48453848       4.48453848       2.24226924        2
Ta       4.48453848       4.48453848       4.48453848        1
Zr       4.48453848       6.72680771       6.72680771        1
Nb       6.72680771       4.48453848       6.72680771        1
Zr       6.72680771       6.72680771       4.48453848        1
N        6.72680771       6.72680771       6.72680771        2
N        6.72680771       4.48453848       4.48453848        2
N        4.48453848       6.72680771       4.48453848        2
N        4.48453848       4.48453848       6.72680771        2
Ta       4.48453848       4.48453848       8.96907695        1
Zr       4.48453848       6.72680771      11.21134619        1
Ti       6.72680771       4.48453848      11.21134619        1
Ti       6.72680771       6.72680771       8.96907695        1
N        6.72680771       6.72680771      11.21134619        2
N        6.72680771       4.48453848       8.96907695        2
N        4.48453848       6.72680771       8.96907695        2
N        4.48453848       4.48453848      11.21134619        2
Ti       4.48453848       8.96907695       0.00000000        1
Ta       4.48453848      11.21134619       2.24226924        1
Zr       6.72680771       8.96907695       2.24226924        1
Nb       6.72680771      11.21134619       0.00000000        1
N        6.72680771      11.21134619       2.24226924        2
N        6.72680771       8.96907695       0.00000000        2
N        4.48453848      11.21134619       0.00000000        2
N        4.48453848       8.96907695       2.24226924        2
Ta       4.48453848       8.96907695       4.48453848        1
Hf       4.48453848      11.21134619       6.72680771        1
Ti       6.72680771       8.96907695       6.72680771        1
Ti       6.72680771      11.21134619       4.48453848        1
N        6.72680771      11.21134619       6.72680771        2
N        6.72680771       8.96907695       4.48453848        2
N        4.48453848      11.21134619       4.48453848        2
N        4.48453848       8.96907695       6.72680771        2
Ti       4.48453848       8.96907695       8.96907695        1
Zr       4.48453848      11.21134619      11.21134619        1
Nb       6.72680771       8.96907695      11.21134619        1
Nb       6.72680771      11.21134619       8.96907695        1
N        6.72680771      11.21134619      11.21134619        2
N        6.72680771       8.96907695       8.96907695        2
N        4.48453848      11.21134619       8.96907695        2
N        4.48453848       8.96907695      11.21134619        2
Ta       8.96907695       0.00000000       0.00000000        1
Ti       8.96907695       2.24226924       2.24226924        1
Hf      11.21134619       0.00000000       2.24226924        1
Nb      11.21134619       2.24226924       0.00000000        1
N       11.21134619       2.24226924       2.24226924        2
N       11.21134619       0.00000000       0.00000000        2
N        8.96907695       2.24226924       0.00000000        2
N        8.96907695       0.00000000       2.24226924        2
Zr       8.96907695       0.00000000       4.48453848        1
Zr       8.96907695       2.24226924       6.72680771        1
Ta      11.21134619       0.00000000       6.72680771        1
Hf      11.21134619       2.24226924       4.48453848        1
N       11.21134619       2.24226924       6.72680771        2
N       11.21134619       0.00000000       4.48453848        2
N        8.96907695       2.24226924       4.48453848        2
N        8.96907695       0.00000000       6.72680771        2
Nb       8.96907695       0.00000000       8.96907695        1
Ta       8.96907695       2.24226924      11.21134619        1
Ti      11.21134619       0.00000000      11.21134619        1
Hf      11.21134619       2.24226924       8.96907695        1
N       11.21134619       2.24226924      11.21134619        2
N       11.21134619       0.00000000       8.96907695        2
N        8.96907695       2.24226924       8.96907695        2
N        8.96907695       0.00000000      11.21134619        2
Zr       8.96907695       4.48453848       0.00000000        1
Nb       8.96907695       6.72680771       2.24226924        1
Zr      11.21134619       4.48453848       2.24226924        1
Ti      11.21134619       6.72680771       0.00000000        1
N       11.21134619       6.72680771       2.24226924        2
N       11.21134619       4.48453848       0.00000000        2
N        8.96907695       6.72680771       0.00000000        2
N        8.96907695       4.48453848       2.24226924        2
Ti       8.96907695       4.48453848       4.48453848        1
Nb       8.96907695       6.72680771       6.72680771        1
Ta      11.21134619       4.48453848       6.72680771        1
Ti      11.21134619       6.72680771       4.48453848        1
N       11.21134619       6.72680771       6.72680771        2
N       11.21134619       4.48453848       4.48453848        2
N        8.96907695       6.72680771       4.48453848        2
N        8.96907695       4.48453848       6.72680771        2
Ti       8.96907695       4.48453848       8.96907695        1
Ta       8.96907695       6.72680771      11.21134619        1
Hf      11.21134619       4.48453848      11.21134619        1
Nb      11.21134619       6.72680771       8.96907695        1
N       11.21134619       6.72680771      11.21134619        2
N       11.21134619       4.48453848       8.96907695        2
N        8.96907695       6.72680771       8.96907695        2
N        8.96907695       4.48453848      11.21134619        2
Hf       8.96907695       8.96907695       0.00000000        1
Ti       8.96907695      11.21134619       2.24226924        1
Nb      11.21134619       8.96907695       2.24226924        1
Hf      11.21134619      11.21134619       0.00000000        1
N       11.21134619      11.21134619       2.24226924        2
N       11.21134619       8.96907695       0.00000000        2
N        8.96907695      11.21134619       0.00000000        2
N        8.96907695       8.96907695       2.24226924        2
Ta       8.96907695       8.96907695       4.48453848        1
Nb       8.96907695      11.21134619       6.72680771        1
Hf      11.21134619       8.96907695       6.72680771        1
Zr      11.21134619      11.21134619       4.48453848        1
N       11.21134619      11.21134619       6.72680771        2
N       11.21134619       8.96907695       4.48453848        2
N        8.96907695      11.21134619       4.48453848        2
N        8.96907695       8.96907695       6.72680771        2
Hf       8.96907695       8.96907695       8.96907695        1
Hf       8.96907695      11.21134619      11.21134619        1
Zr      11.21134619       8.96907695      11.21134619        1
Ti      11.21134619      11.21134619       8.96907695        1
N       11.21134619      11.21134619      11.21134619        2
N       11.21134619       8.96907695       8.96907695        2
N        8.96907695      11.21134619       8.96907695        2
N        8.96907695       8.96907695      11.21134619        2
216
Lattice="13.453615425789224 0.0 0.0 0.0 13.453615425789224 0.0 0.0 0.0 13.453615425789224" Properties=species:S:1:pos:R:3:tags:I:1 sqs_abs_alpha=0.10785292629448474 energy=-2238.424695354398 mc_step=200 energy_method=uma rosenbluth_W_new=6.68498904239733 rosenbluth_W_old=6.3689105972200215 pbc="T T T"
Hf       0.00000000       0.00000000       0.00000000        1
Ti       0.00000000       2.24226924       2.24226924        1
Ti       2.24226924       0.00000000       2.24226924        1
Hf       2.24226924       2.24226924       0.00000000        1
N        2.24226924       2.24226924       2.24226924        2
N        2.24226924       0.00000000       0.00000000        2
N        0.00000000       2.24226924       0.00000000        2
N        0.00000000       0.00000000       2.24226924        2
Nb       0.00000000       0.00000000       4.48453848        1
Ti       0.00000000       2.24226924       6.72680771        1
Ta       2.24226924       0.00000000       6.72680771        1
Zr       2.24226924       2.24226924       4.48453848        1
N        2.24226924       2.24226924       6.72680771        2
N        2.24226924       0.00000000       4.48453848        2
N        0.00000000       2.24226924       4.48453848        2
N        0.00000000       0.00000000       6.72680771        2
Ta       0.00000000       0.00000000       8.96907695        1
Ti       0.00000000       2.24226924      11.21134619        1
Nb       2.24226924       0.00000000      11.21134619        1
Hf       2.24226924       2.24226924       8.96907695        1
N        2.24226924       2.24226924      11.21134619        2
N        2.24226924       0.00000000       8.96907695        2
N        0.00000000       2.24226924       8.96907695        2
N        0.00000000       0.00000000      11.21134619        2
Zr       0.00000000       4.48453848       0.00000000        1
Zr       0.00000000       6.72680771       2.24226924        1
Zr       2.24226924       4.48453848       2.24226924        1
Ti       2.24226924       6.72680771       0.00000000        1
N        2.24226924       6.72680771       2.24226924        2
N        2.24226924       4.48453848       0.00000000        2
N        0.00000000       6.72680771       0.00000000        2
N        0.00000000       4.48453848       2.24226924        2
Nb       0.00000000       4.48453848       4.48453848        1
Zr       0.00000000       6.72680771       6.72680771        1
Hf       2.24226924       4.48453848       6.72680771        1
Zr       2.24226924       6.72680771       4.48453848        1
N        2.24226924       6.72680771       6.72680771        2
N        2.24226924       4.48453848       4.48453848        2
N        0.00000000       6.72680771       4.48453848        2
N        0.00000000       4.48453848       6.72680771        2
Hf       0.00000000       4.48453848       8.96907695        1
Ta       0.00000000       6.72680771      11.21134619        1
Nb       2.24226924       4.48453848      11.21134619        1
Ta       2.24226924       6.72680771       8.96907695        1
N        2.24226924       6.72680771      11.21134619        2
N        2.24226924       4.48453848       8.96907695        2
N        0.00000000       6.72680771       8.96907695        2
N        0.00000000       4.48453848      11.21134619        2
Hf       0.00000000       8.96907695       0.00000000        1
Ti       0.00000000      11.21134619       2.24226924        1
Ti       2.24226924       8.96907695       2.24226924        1
Zr       2.24226924      11.21134619       0.00000000        1
N        2.24226924      11.21134619       2.24226924        2
N        2.24226924       8.96907695       0.00000000        2
N        0.00000000      11.21134619       0.00000000        2
N        0.00000000       8.96907695       2.24226924        2
Zr       0.00000000       8.96907695       4.48453848        1
Ta       0.00000000      11.21134619       6.72680771        1
Ta       2.24226924       8.96907695       6.72680771        1
Zr       2.24226924      11.21134619       4.48453848        1
N        2.24226924      11.21134619       6.72680771        2
N        2.24226924       8.96907695       4.48453848        2
N        0.00000000      11.21134619       4.48453848        2
N        0.00000000       8.96907695       6.72680771        2
Nb       0.00000000       8.96907695       8.96907695        1
Hf       0.00000000      11.21134619      11.21134619        1
Ti       2.24226924       8.96907695      11.21134619        1
Ti       2.24226924      11.21134619       8.96907695        1
N        2.24226924      11.21134619      11.21134619        2
N        2.24226924       8.96907695       8.96907695        2
N        0.00000000      11.21134619       8.96907695        2
N        0.00000000       8.96907695      11.21134619        2
Ta       4.48453848       0.00000000       0.00000000        1
Hf       4.48453848       2.24226924       2.24226924        1
Hf       6.72680771       0.00000000       2.24226924        1
Hf       6.72680771       2.24226924       0.00000000        1
N        6.72680771       2.24226924       2.24226924        2
N        6.72680771       0.00000000       0.00000000        2
N        4.48453848       2.24226924       0.00000000        2
N        4.48453848       0.00000000       2.24226924        2
Ti       4.48453848       0.00000000       4.48453848        1
Zr       4.48453848       2.24226924       6.72680771        1
Ti       6.72680771       0.00000000       6.72680771        1
Zr       6.72680771       2.24226924       4.48453848        1
N        6.72680771       2.24226924       6.72680771        2
N        6.72680771       0.00000000       4.48453848        2
N        4.48453848       2.24226924       4.48453848        2
N        4.48453848       0.00000000       6.72680771        2
Hf       4.48453848       0.00000000       8.96907695        1
Nb       4.48453848       2.24226924      11.21134619        1
Hf       6.72680771       0.00000000      11.21134619        1
Ta       6.72680771       2.24226924       8.96907695        1
N        6.72680771       2.24226924      11.21134619        2
N        6.72680771       0.00000000       8.96907695        2
N        4.48453848       2.24226924       8.96907695        2
N        4.48453848       0.00000000      11.21134619        2
Nb       4.48453848       4.48453848       0.00000000        1
Ti       4.48453848       6.72680771       2.24226924        1
Ta       6.72680771       4.48453848       2.24226924        1
Ti       6.72680771       6.72680771       0.00000000        1
N        6.72680771       6.72680771       2.24226924        2
N        6.72680771       4.48453848       0.00000000        2
N        4.48453848       6.72680771       0.00000000        2
N        4.48453848       4.48453848       2.24226924        2
Nb       4.48453848       4.48453848       4.48453848        1
Ti       4.48453848       6.72680771       6.72680771        1
Nb       6.72680771       4.48453848       6.72680771        1
Nb       6.72680771       6.72680771       4.48453848        1
N        6.72680771       6.72680771       6.72680771        2
N        6.72680771       4.48453848       4.48453848        2
N        4.48453848       6.72680771       4.48453848        2
N        4.48453848       4.48453848       6.72680771        2
Nb       4.48453848       4.48453848       8.96907695        1
Zr       4.48453848       6.72680771      11.21134619        1
Ti       6.72680771       4.48453848      11.21134619        1
Zr       6.72680771       6.72680771       8.96907695        1
N        6.72680771       6.72680771      11.21134619        2
N        6.72680771       4.48453848       8.96907695        2
N        4.48453848       6.72680771       8.96907695        2
N        4.48453848       4.48453848      11.21134619        2
Hf       4.48453848       8.96907695       0.00000000        1
Nb       4.48453848      11.21134619       2.24226924        1
Zr       6.72680771       8.96907695       2.24226924        1
Zr       6.72680771      11.21134619       0.00000000        1
N        6.72680771      11.21134619       2.24226924        2
N        6.72680771       8.96907695       0.00000000        2
N        4.48453848      11.21134619       0.00000000        2
N        4.48453848       8.96907695       2.24226924        2
Zr       4.48453848       8.96907695       4.48453848        1
Hf       4.48453848      11.21134619       6.72680771        1
Ti       6.72680771       8.96907695       6.72680771        1
Ta       6.72680771      11.21134619       4.48453848        1
N        6.72680771      11.21134619       6.72680771        2
N        6.72680771       8.96907695       4.48453848        2
N        4.48453848      11.21134619       4.48453848        2
N        4.48453848       8.96907695       6.72680771        2
Ta       4.48453848       8.96907695       8.96907695        1
Zr       4.48453848      11.21134619      11.21134619        1
Nb       6.72680771       8.96907695      11.21134619        1
Ta       6.72680771      11.21134619       8.96907695        1
N        6.72680771      11.21134619      11.21134619        2
N        6.72680771       8.96907695       8.96907695        2
N        4.48453848      11.21134619       8.96907695        2
N        4.48453848       8.96907695      11.21134619        2
Zr       8.96907695       0.00000000       0.00000000        1
Nb       8.96907695       2.24226924       2.24226924        1
Hf      11.21134619       0.00000000       2.24226924        1
Nb      11.21134619       2.24226924       0.00000000        1
N       11.21134619       2.24226924       2.24226924        2
N       11.21134619       0.00000000       0.00000000        2
N        8.96907695       2.24226924       0.00000000        2
N        8.96907695       0.00000000       2.24226924        2
Nb       8.96907695       0.00000000       4.48453848        1
Zr       8.96907695       2.24226924       6.72680771        1
Hf      11.21134619       0.00000000       6.72680771        1
Ta      11.21134619       2.24226924       4.48453848        1
N       11.21134619       2.24226924       6.72680771        2
N       11.21134619       0.00000000       4.48453848        2
N        8.96907695       2.24226924       4.48453848        2
N        8.96907695       0.00000000       6.72680771        2
Nb       8.96907695       0.00000000       8.96907695        1
Ti       8.96907695       2.24226924      11.21134619        1
Ti      11.21134619       0.00000000      11.21134619        1
Hf      11.21134619       2.24226924       8.96907695        1
N       11.21134619       2.24226924      11.21134619        2
N       11.21134619       0.00000000       8.96907695        2
N        8.96907695       2.24226924       8.96907695        2
N        8.96907695       0.00000000      11.21134619        2
Zr       8.96907695       4.48453848       0.00000000        1
Hf       8.96907695       6.72680771       2.24226924        1
Ta      11.21134619       4.48453848       2.24226924        1
Ti      11.21134619       6.72680771       0.00000000        1
N       11.21134619       6.72680771       2.24226924        2
N       11.21134619       4.48453848       0.00000000        2
N        8.96907695       6.72680771       0.00000000        2
N        8.96907695       4.48453848       2.24226924        2
Ti       8.96907695       4.48453848       4.48453848        1
Ta       8.96907695       6.72680771       6.72680771        1
Ta      11.21134619       4.48453848       6.72680771        1
Ti      11.21134619       6.72680771       4.48453848        1
N       11.21134619       6.72680771       6.72680771        2
N       11.21134619       4.48453848       4.48453848        2
N        8.96907695       6.72680771       4.48453848        2
N        8.96907695       4.48453848       6.72680771        2
Ta       8.96907695       4.48453848       8.96907695        1
Ta       8.96907695       6.72680771      11.21134619        1
Hf      11.21134619       4.48453848      11.21134619        1
Ti      11.21134619       6.72680771       8.96907695        1
N       11.21134619       6.72680771      11.21134619        2
N       11.21134619       4.48453848       8.96907695        2
N        8.96907695       6.72680771       8.96907695        2
N        8.96907695       4.48453848      11.21134619        2
Nb       8.96907695       8.96907695       0.00000000        1
Hf       8.96907695      11.21134619       2.24226924        1
Ta      11.21134619       8.96907695       2.24226924        1
Ta      11.21134619      11.21134619       0.00000000        1
N       11.21134619      11.21134619       2.24226924        2
N       11.21134619       8.96907695       0.00000000        2
N        8.96907695      11.21134619       0.00000000        2
N        8.96907695       8.96907695       2.24226924        2
Zr       8.96907695       8.96907695       4.48453848        1
Nb       8.96907695      11.21134619       6.72680771        1
Zr      11.21134619       8.96907695       6.72680771        1
Ta      11.21134619      11.21134619       4.48453848        1
N       11.21134619      11.21134619       6.72680771        2
N       11.21134619       8.96907695       4.48453848        2
N        8.96907695      11.21134619       4.48453848        2
N        8.96907695       8.96907695       6.72680771        2
Hf       8.96907695       8.96907695       8.96907695        1
Hf       8.96907695      11.21134619      11.21134619        1
Nb      11.21134619       8.96907695      11.21134619        1
Nb      11.21134619      11.21134619       8.96907695        1
N       11.21134619      11.21134619      11.21134619        2
N       11.21134619       8.96907695       8.96907695        2
N        8.96907695      11.21134619       8.96907695        2
N        8.96907695       8.96907695      11.21134619        2
216
Lattice="13.453615425789224 0.0 0.0 0.0 13.453615425789224 0.0 0.0 0.0 13.453615425789224" Properties=species:S:1:pos:R:3:tags:I:1 sqs_abs_alpha=0.12879743632990387 energy=-2238.433651733608 mc_step=250 energy_method=uma rosenbluth_W_new=4.753905776096913 rosenbluth_W_old=2.957623034403471 pbc="T T T"
Ti       0.00000000       0.00000000       0.00000000        1
Nb       0.00000000       2.24226924       2.24226924        1
Nb       2.24226924       0.00000000       2.24226924        1
Zr       2.24226924       2.24226924       0.00000000        1
N        2.24226924       2.24226924       2.24226924        2
N        2.24226924       0.00000000       0.00000000        2
N        0.00000000       2.24226924       0.00000000        2
N        0.00000000       0.00000000       2.24226924        2
Ta       0.00000000       0.00000000       4.48453848        1
Ti       0.00000000       2.24226924       6.72680771        1
Ta       2.24226924       0.00000000       6.72680771        1
Zr       2.24226924       2.24226924       4.48453848        1
N        2.24226924       2.24226924       6.72680771        2
N        2.24226924       0.00000000       4.48453848        2
N        0.00000000       2.24226924       4.48453848        2
N        0.00000000       0.00000000       6.72680771        2
Hf       0.00000000       0.00000000       8.96907695        1
Ti       0.00000000       2.24226924      11.21134619        1
Hf       2.24226924       0.00000000      11.21134619        1
Zr       2.24226924       2.24226924       8.96907695        1
N        2.24226924       2.24226924      11.21134619        2
N        2.24226924       0.00000000       8.96907695        2
N        0.00000000       2.24226924       8.96907695        2
N        0.00000000       0.00000000      11.21134619        2
Hf       0.00000000       4.48453848       0.00000000        1
Nb       0.00000000       6.72680771       2.24226924        1
Nb       2.24226924       4.48453848       2.24226924        1
Nb       2.24226924       6.72680771       0.00000000        1
N        2.24226924       6.72680771       2.24226924        2
N        2.24226924       4.48453848       0.00000000        2
N        0.00000000       6.72680771       0.00000000        2
N        0.00000000       4.48453848       2.24226924        2
Zr       0.00000000       4.48453848       4.48453848        1
Zr       0.00000000       6.72680771       6.72680771        1
Hf       2.24226924       4.48453848       6.72680771        1
Hf       2.24226924       6.72680771       4.48453848        1
N        2.24226924       6.72680771       6.72680771        2
N        2.24226924       4.48453848       4.48453848        2
N        0.00000000       6.72680771       4.48453848        2
N        0.00000000       4.48453848       6.72680771        2
Ta       0.00000000       4.48453848       8.96907695        1
Ta       0.00000000       6.72680771      11.21134619        1
Ta       2.24226924       4.48453848      11.21134619        1
Ta       2.24226924       6.72680771       8.96907695        1
N        2.24226924       6.72680771      11.21134619        2
N        2.24226924       4.48453848       8.96907695        2
N        0.00000000       6.72680771       8.96907695        2
N        0.00000000       4.48453848      11.21134619        2
Nb       0.00000000       8.96907695       0.00000000        1
Ti       0.00000000      11.21134619       2.24226924        1
Nb       2.24226924       8.96907695       2.24226924        1
Hf       2.24226924      11.21134619       0.00000000        1
N        2.24226924      11.21134619       2.24226924        2
N        2.24226924       8.96907695       0.00000000        2
N        0.00000000      11.21134619       0.00000000        2
N        0.00000000       8.96907695       2.24226924        2
Zr       0.00000000       8.96907695       4.48453848        1
Ta       0.00000000      11.21134619       6.72680771        1
Ta       2.24226924       8.96907695       6.72680771        1
Ti       2.24226924      11.21134619       4.48453848        1
N        2.24226924      11.21134619       6.72680771        2
N        2.24226924       8.96907695       4.48453848        2
N        0.00000000      11.21134619       4.48453848        2
N        0.00000000       8.96907695       6.72680771        2
Ti       0.00000000       8.96907695       8.96907695        1
Hf       0.00000000      11.21134619      11.21134619        1
Ti       2.24226924       8.96907695      11.21134619        1
Ti       2.24226924      11.21134619       8.96907695        1
N        2.24226924      11.21134619      11.21134619        2
N        2.24226924       8.96907695       8.96907695        2
N        0.00000000      11.21134619       8.96907695        2
N        0.00000000       8.96907695      11.21134619        2
Ta       4.48453848       0.00000000       0.00000000        1
Hf       4.48453848       2.24226924       2.24226924        1
Ti       6.72680771       0.00000000       2.24226924        1
Hf       6.72680771       2.24226924       0.00000000        1
N        6.72680771       2.24226924       2.24226924        2
N        6.72680771       0.00000000       0.00000000        2
N        4.48453848       2.24226924       0.00000000        2
N        4.48453848       0.00000000       2.24226924        2
Zr       4.48453848       0.00000000       4.48453848        1
Nb       4.48453848       2.24226924       6.72680771        1
Nb       6.72680771       0.00000000       6.72680771        1
Zr       6.72680771       2.24226924       4.48453848        1
N        6.72680771       2.24226924       6.72680771        2
N        6.72680771       0.00000000       4.48453848        2
N        4.48453848       2.24226924       4.48453848        2
N        4.48453848       0.00000000       6.72680771        2
Hf       4.48453848       0.00000000       8.96907695        1
Hf       4.48453848       2.24226924      11.21134619        1
Zr       6.72680771       0.00000000      11.21134619        1
Ta       6.72680771       2.24226924       8.96907695        1
N        6.72680771       2.24226924      11.21134619        2
N        6.72680771       0.00000000       8.96907695        2
N        4.48453848       2.24226924       8.96907695        2
N        4.48453848       0.00000000      11.21134619        2
Nb       4.48453848       4.48453848       0.00000000        1
Nb       4.48453848       6.72680771       2.24226924        1
Zr       6.72680771       4.48453848       2.24226924        1
Zr       6.72680771       6.72680771       0.00000000        1
N        6.72680771       6.72680771       2.24226924        2
N        6.72680771       4.48453848       0.00000000        2
N        4.48453848       6.72680771       0.00000000        2
N        4.48453848       4.48453848       2.24226924        2
Ti       4.48453848       4.48453848       4.48453848        1
Zr       4.48453848       6.72680771       6.72680771        1
Nb       6.72680771       4.48453848       6.72680771        1
Nb       6.72680771       6.72680771       4.48453848        1
N        6.72680771       6.72680771       6.72680771        2
N        6.72680771       4.48453848       4.48453848        2
N        4.48453848       6.72680771       4.48453848        2
N        4.48453848       4.48453848       6.72680771        2
Ti       4.48453848       4.48453848       8.96907695        1
Zr       4.48453848       6.72680771      11.21134619        1
Ti       6.72680771       4.48453848      11.21134619        1
Zr       6.72680771       6.72680771       8.96907695        1
N        6.72680771       6.72680771      11.21134619        2
N        6.72680771       4.48453848       8.96907695        2
N        4.48453848       6.72680771       8.96907695        2
N        4.48453848       4.48453848      11.21134619        2
Hf       4.48453848       8.96907695       0.00000000        1
Nb       4.48453848      11.21134619       2.24226924        1
Nb       6.72680771       8.96907695       2.24226924        1
Ti       6.72680771      11.21134619       0.00000000        1
N        6.72680771      11.21134619       2.24226924        2
N        6.72680771       8.96907695       0.00000000        2
N        4.48453848      11.21134619       0.00000000        2
N        4.48453848       8.96907695       2.24226924        2
Hf       4.48453848       8.96907695       4.48453848        1
Hf       4.48453848      11.21134619       6.72680771        1
Ti       6.72680771       8.96907695       6.72680771        1
Hf       6.72680771      11.21134619       4.48453848        1
N        6.72680771      11.21134619       6.72680771        2
N        6.72680771       8.96907695       4.48453848        2
N        4.48453848      11.21134619       4.48453848        2
N        4.48453848       8.96907695       6.72680771        2
Ta       4.48453848       8.96907695       8.96907695        1
Ta       4.48453848      11.21134619      11.21134619        1
Ta       6.72680771       8.96907695      11.21134619        1
Ta       6.72680771      11.21134619       8.96907695        1
N        6.72680771      11.21134619      11.21134619        2
N        6.72680771       8.96907695       8.96907695        2
N        4.48453848      11.21134619       8.96907695        2
N        4.48453848       8.96907695      11.21134619        2
Hf       8.96907695       0.00000000       0.00000000        1
Nb       8.96907695       2.24226924       2.24226924        1
Hf      11.21134619       0.00000000       2.24226924        1
Nb      11.21134619       2.24226924       0.00000000        1
N       11.21134619       2.24226924       2.24226924        2
N       11.21134619       0.00000000       0.00000000        2
N        8.96907695       2.24226924       0.00000000        2
N        8.96907695       0.00000000       2.24226924        2
Ta       8.96907695       0.00000000       4.48453848        1
Zr       8.96907695       2.24226924       6.72680771        1
Hf      11.21134619       0.00000000       6.72680771        1
Hf      11.21134619       2.24226924       4.48453848        1
N       11.21134619       2.24226924       6.72680771        2
N       11.21134619       0.00000000       4.48453848        2
N        8.96907695       2.24226924       4.48453848        2
N        8.96907695       0.00000000       6.72680771        2
Ti       8.96907695       0.00000000       8.96907695        1
Ti       8.96907695       2.24226924      11.21134619        1
Zr      11.21134619       0.00000000      11.21134619        1
Ti      11.21134619       2.24226924       8.96907695        1
N       11.21134619       2.24226924      11.21134619        2
N       11.21134619       0.00000000       8.96907695        2
N        8.96907695       2.24226924       8.96907695        2
N        8.96907695       0.00000000      11.21134619        2
Ti       8.96907695       4.48453848       0.00000000        1
Zr       8.96907695       6.72680771       2.24226924        1
Zr      11.21134619       4.48453848       2.24226924        1
Zr      11.21134619       6.72680771       0.00000000        1
N       11.21134619       6.72680771       2.24226924        2
N       11.21134619       4.48453848       0.00000000        2
N        8.96907695       6.72680771       0.00000000        2
N        8.96907695       4.48453848       2.24226924        2
Ti       8.96907695       4.48453848       4.48453848        1
Ta       8.96907695       6.72680771       6.72680771        1
Ta      11.21134619       4.48453848       6.72680771        1
Ti      11.21134619       6.72680771       4.48453848        1
N       11.21134619       6.72680771       6.72680771        2
N       11.21134619       4.48453848       4.48453848        2
N        8.96907695       6.72680771       4.48453848        2
N        8.96907695       4.48453848       6.72680771        2
Ta       8.96907695       4.48453848       8.96907695        1
Ta       8.96907695       6.72680771      11.21134619        1
Nb      11.21134619       4.48453848      11.21134619        1
Zr      11.21134619       6.72680771       8.96907695        1
N       11.21134619       6.72680771      11.21134619        2
N       11.21134619       4.48453848       8.96907695        2
N        8.96907695       6.72680771       8.96907695        2
N        8.96907695       4.48453848      11.21134619        2
Nb       8.96907695       8.96907695       0.00000000        1
Hf       8.96907695      11.21134619       2.24226924        1
Nb      11.21134619       8.96907695       2.24226924        1
Ta      11.21134619      11.21134619       0.00000000        1
N       11.21134619      11.21134619       2.24226924        2
N       11.21134619       8.96907695       0.00000000        2
N        8.96907695      11.21134619       0.00000000        2
N        8.96907695       8.96907695       2.24226924        2
Zr       8.96907695       8.96907695       4.48453848        1
Nb       8.96907695      11.21134619       6.72680771        1
Zr      11.21134619       8.96907695       6.72680771        1
Ta      11.21134619      11.21134619       4.48453848        1
N       11.21134619      11.21134619       6.72680771        2
N       11.21134619       8.96907695       4.48453848        2
N        8.96907695      11.21134619       4.48453848        2
N        8.96907695       8.96907695       6.72680771        2
Hf       8.96907695       8.96907695       8.96907695        1
Hf       8.96907695      11.21134619      11.21134619        1
Ti      11.21134619       8.96907695      11.21134619        1
Ti      11.21134619      11.21134619       8.96907695        1
N       11.21134619      11.21134619      11.21134619        2
N       11.21134619       8.96907695       8.96907695        2
N        8.96907695      11.21134619       8.96907695        2
N        8.96907695       8.96907695      11.21134619        2
216
Lattice="13.453615425789224 0.0 0.0 0.0 13.453615425789224 0.0 0.0 0.0 13.453615425789224" Properties=species:S:1:pos:R:3:tags:I:1 sqs_abs_alpha=0.130821386405802 energy=-2238.57453057478 mc_step=300 energy_method=uma rosenbluth_W_new=6.179152321780063 rosenbluth_W_old=4.027744898361438 pbc="T T T"
Nb       0.00000000       0.00000000       0.00000000        1
Ti       0.00000000       2.24226924       2.24226924        1
Zr       2.24226924       0.00000000       2.24226924        1
Hf       2.24226924       2.24226924       0.00000000        1
N        2.24226924       2.24226924       2.24226924        2
N        2.24226924       0.00000000       0.00000000        2
N        0.00000000       2.24226924       0.00000000        2
N        0.00000000       0.00000000       2.24226924        2
Ta       0.00000000       0.00000000       4.48453848        1
Ti       0.00000000       2.24226924       6.72680771        1
Ta       2.24226924       0.00000000       6.72680771        1
Ta       2.24226924       2.24226924       4.48453848        1
N        2.24226924       2.24226924       6.72680771        2
N        2.24226924       0.00000000       4.48453848        2
N        0.00000000       2.24226924       4.48453848        2
N        0.00000000       0.00000000       6.72680771        2
Hf       0.00000000       0.00000000       8.96907695        1
Ti       0.00000000       2.24226924      11.21134619        1
Nb       2.24226924       0.00000000      11.21134619        1
Ta       2.24226924       2.24226924       8.96907695        1
N        2.24226924       2.24226924      11.21134619        2
N        2.24226924       0.00000000       8.96907695        2
N        0.00000000       2.24226924       8.96907695        2
N        0.00000000       0.00000000      11.21134619        2
Hf       0.00000000       4.48453848       0.00000000        1
Nb       0.00000000       6.72680771       2.24226924        1
Nb       2.24226924       4.48453848       2.24226924        1
Hf       2.24226924       6.72680771       0.00000000        1
N        2.24226924       6.72680771       2.24226924        2
N        2.24226924       4.48453848       0.00000000        2
N        0.00000000       6.72680771       0.00000000        2
N        0.00000000       4.48453848       2.24226924        2
Zr       0.00000000       4.48453848       4.48453848        1
Ti       0.00000000       6.72680771       6.72680771        1
Hf       2.24226924       4.48453848       6.72680771        1
Hf       2.24226924       6.72680771       4.48453848        1
N        2.24226924       6.72680771       6.72680771        2
N        2.24226924       4.48453848       4.48453848        2
N        0.00000000       6.72680771       4.48453848        2
N        0.00000000       4.48453848       6.72680771        2
Ta       0.00000000       4.48453848       8.96907695        1
Ti       0.00000000       6.72680771      11.21134619        1
Ta       2.24226924       4.48453848      11.21134619        1
Hf       2.24226924       6.72680771       8.96907695        1
N        2.24226924       6.72680771      11.21134619        2
N        2.24226924       4.48453848       8.96907695        2
N        0.00000000       6.72680771       8.96907695        2
N        0.00000000       4.48453848      11.21134619        2
Ta       0.00000000       8.96907695       0.00000000        1
Ti       0.00000000      11.21134619       2.24226924        1
Ti       2.24226924       8.96907695       2.24226924        1
Hf       2.24226924      11.21134619       0.00000000        1
N        2.24226924      11.21134619       2.24226924        2
N        2.24226924       8.96907695       0.00000000        2
N        0.00000000      11.21134619       0.00000000        2
N        0.00000000       8.96907695       2.24226924        2
Zr       0.00000000       8.96907695       4.48453848        1
Nb       0.00000000      11.21134619       6.72680771        1
Ta       2.24226924       8.96907695       6.72680771        1
Ti       2.24226924      11.21134619       4.48453848        1
N        2.24226924      11.21134619       6.72680771        2
N        2.24226924       8.96907695       4.48453848        2
N        0.00000000      11.21134619       4.48453848        2
N        0.00000000       8.96907695       6.72680771        2
Ti       0.00000000       8.96907695       8.96907695        1
Hf       0.00000000      11.21134619      11.21134619        1
Zr       2.24226924       8.96907695      11.21134619        1
Ti       2.24226924      11.21134619       8.96907695        1
N        2.24226924      11.21134619      11.21134619        2
N        2.24226924       8.96907695       8.96907695        2
N        0.00000000      11.21134619       8.96907695        2
N        0.00000000       8.96907695      11.21134619        2
Ta       4.48453848       0.00000000       0.00000000        1
Zr       4.48453848       2.24226924       2.24226924        1
Nb       6.72680771       0.00000000       2.24226924        1
Hf       6.72680771       2.24226924       0.00000000        1
N        6.72680771       2.24226924       2.24226924        2
N        6.72680771       0.00000000       0.00000000        2
N        4.48453848       2.24226924       0.00000000        2
N        4.48453848       0.00000000       2.24226924        2
Ti       4.48453848       0.00000000       4.48453848        1
Nb       4.48453848       2.24226924       6.72680771        1
Ta       6.72680771       0.00000000       6.72680771        1
Ti       6.72680771       2.24226924       4.48453848        1
N        6.72680771       2.24226924       6.72680771        2
N        6.72680771       0.00000000       4.48453848        2
N        4.48453848       2.24226924       4.48453848        2
N        4.48453848       0.00000000       6.72680771        2
Zr       4.48453848       0.00000000       8.96907695        1
Hf       4.48453848       2.24226924      11.21134619        1
Ti       6.72680771       0.00000000      11.21134619        1
Ta       6.72680771       2.24226924       8.96907695        1
N        6.72680771       2.24226924      11.21134619        2
N        6.72680771       0.00000000       8.96907695        2
N        4.48453848       2.24226924       8.96907695        2
N        4.48453848       0.00000000      11.21134619        2
Hf       4.48453848       4.48453848       0.00000000        1
Zr       4.48453848       6.72680771       2.24226924        1
Zr       6.72680771       4.48453848       2.24226924        1
Nb       6.72680771       6.72680771       0.00000000        1
N        6.72680771       6.72680771       2.24226924        2
N        6.72680771       4.48453848       0.00000000        2
N        4.48453848       6.72680771       0.00000000        2
N        4.48453848       4.48453848       2.24226924        2
Hf       4.48453848       4.48453848       4.48453848        1
Hf       4.48453848       6.72680771       6.72680771        1
Ti       6.72680771       4.48453848       6.72680771        1
Nb       6.72680771       6.72680771       4.48453848        1
N        6.72680771       6.72680771       6.72680771        2
N        6.72680771       4.48453848       4.48453848        2
N        4.48453848       6.72680771       4.48453848        2
N        4.48453848       4.48453848       6.72680771        2
Ti       4.48453848       4.48453848       8.96907695        1
Ta       4.48453848       6.72680771      11.21134619        1
Ti       6.72680771       4.48453848      11.21134619        1
Zr       6.72680771       6.72680771       8.96907695        1
N        6.72680771       6.72680771      11.21134619        2
N        6.72680771       4.48453848       8.96907695        2
N        4.48453848       6.72680771       8.96907695        2
N        4.48453848       4.48453848      11.21134619        2
Ta       4.48453848       8.96907695       0.00000000        1
Ti       4.48453848      11.21134619       2.24226924        1
Nb       6.72680771       8.96907695       2.24226924        1
Zr       6.72680771      11.21134619       0.00000000        1
N        6.72680771      11.21134619       2.24226924        2
N        6.72680771       8.96907695       0.00000000        2
N        4.48453848      11.21134619       0.00000000        2
N        4.48453848       8.96907695       2.24226924        2
Ta       4.48453848       8.96907695       4.48453848        1
Hf       4.48453848      11.21134619       6.72680771        1
Ti       6.72680771       8.96907695       6.72680771        1
Hf       6.72680771      11.21134619       4.48453848        1
N        6.72680771      11.21134619       6.72680771        2
N        6.72680771       8.96907695       4.48453848        2
N        4.48453848      11.21134619       4.48453848        2
N        4.48453848       8.96907695       6.72680771        2
Nb       4.48453848       8.96907695       8.96907695        1
Zr       4.48453848      11.21134619      11.21134619        1
Hf       6.72680771       8.96907695      11.21134619        1
Ta       6.72680771      11.21134619       8.96907695        1
N        6.72680771      11.21134619      11.21134619        2
N        6.72680771       8.96907695       8.96907695        2
N        4.48453848      11.21134619       8.96907695        2
N        4.48453848       8.96907695      11.21134619        2
Nb       8.96907695       0.00000000       0.00000000        1
Nb       8.96907695       2.24226924       2.24226924        1
Hf      11.21134619       0.00000000       2.24226924        1
Nb      11.21134619       2.24226924       0.00000000        1
N       11.21134619       2.24226924       2.24226924        2
N       11.21134619       0.00000000       0.00000000        2
N        8.96907695       2.24226924       0.00000000        2
N        8.96907695       0.00000000       2.24226924        2
Hf       8.96907695       0.00000000       4.48453848        1
Zr       8.96907695       2.24226924       6.72680771        1
Nb      11.21134619       0.00000000       6.72680771        1
Hf      11.21134619       2.24226924       4.48453848        1
N       11.21134619       2.24226924       6.72680771        2
N       11.21134619       0.00000000       4.48453848        2
N        8.96907695       2.24226924       4.48453848        2
N        8.96907695       0.00000000       6.72680771        2
Ti       8.96907695       0.00000000       8.96907695        1
Ti       8.96907695       2.24226924      11.21134619        1
Zr      11.21134619       0.00000000      11.21134619        1
Zr      11.21134619       2.24226924       8.96907695        1
N       11.21134619       2.24226924      11.21134619        2
N       11.21134619       0.00000000       8.96907695        2
N        8.96907695       2.24226924       8.96907695        2
N        8.96907695       0.00000000      11.21134619        2
Nb       8.96907695       4.48453848       0.00000000        1
Zr       8.96907695       6.72680771       2.24226924        1
Zr      11.21134619       4.48453848       2.24226924        1
Zr      11.21134619       6.72680771       0.00000000        1
N       11.21134619       6.72680771       2.24226924        2
N       11.21134619       4.48453848       0.00000000        2
N        8.96907695       6.72680771       0.00000000        2
N        8.96907695       4.48453848       2.24226924        2
Ta       8.96907695       4.48453848       4.48453848        1
Ta       8.96907695       6.72680771       6.72680771        1
Nb      11.21134619       4.48453848       6.72680771        1
Nb      11.21134619       6.72680771       4.48453848        1
N       11.21134619       6.72680771       6.72680771        2
N       11.21134619       4.48453848       4.48453848        2
N        8.96907695       6.72680771       4.48453848        2
N        8.96907695       4.48453848       6.72680771        2
Nb       8.96907695       4.48453848       8.96907695        1
Zr       8.96907695       6.72680771      11.21134619        1
Nb      11.21134619       4.48453848      11.21134619        1
Zr      11.21134619       6.72680771       8.96907695        1
N       11.21134619       6.72680771      11.21134619        2
N       11.21134619       4.48453848       8.96907695        2
N        8.96907695       6.72680771       8.96907695        2
N        8.96907695       4.48453848      11.21134619        2
Nb       8.96907695       8.96907695       0.00000000        1
Ta       8.96907695      11.21134619       2.24226924        1
Ti      11.21134619       8.96907695       2.24226924        1
Zr      11.21134619      11.21134619       0.00000000        1
N       11.21134619      11.21134619       2.24226924        2
N       11.21134619       8.96907695       0.00000000        2
N        8.96907695      11.21134619       0.00000000        2
N        8.96907695       8.96907695       2.24226924        2
Hf       8.96907695       8.96907695       4.48453848        1
Ta       8.96907695      11.21134619       6.72680771        1
Zr      11.21134619       8.96907695       6.72680771        1
Ta      11.21134619      11.21134619       4.48453848        1
N       11.21134619      11.21134619       6.72680771        2
N       11.21134619       8.96907695       4.48453848        2
N        8.96907695      11.21134619       4.48453848        2
N        8.96907695       8.96907695       6.72680771        2
Zr       8.96907695       8.96907695       8.96907695        1
Hf       8.96907695      11.21134619      11.21134619        1
Ta      11.21134619       8.96907695      11.21134619        1
Ti      11.21134619      11.21134619       8.96907695        1
N       11.21134619      11.21134619      11.21134619        2
N       11.21134619       8.96907695       8.96907695        2
N        8.96907695      11.21134619       8.96907695        2
N        8.96907695       8.96907695      11.21134619        2
216
Lattice="13.453615425789224 0.0 0.0 0.0 13.453615425789224 0.0 0.0 0.0 13.453615425789224" Properties=species:S:1:pos:R:3:tags:I:1 sqs_abs_alpha=0.14935739585090232 energy=-2239.0154174389236 mc_step=350 energy_method=uma rosenbluth_W_new=6.184162059171317 rosenbluth_W_old=4.832809895788851 pbc="T T T"
Nb       0.00000000       0.00000000       0.00000000        1
Ti       0.00000000       2.24226924       2.24226924        1
Zr       2.24226924       0.00000000       2.24226924        1
Ti       2.24226924       2.24226924       0.00000000        1
N        2.24226924       2.24226924       2.24226924        2
N        2.24226924       0.00000000       0.00000000        2
N        0.00000000       2.24226924       0.00000000        2
N        0.00000000       0.00000000       2.24226924        2
Ta       0.00000000       0.00000000       4.48453848        1
Ti       0.00000000       2.24226924       6.72680771        1
Zr       2.24226924       0.00000000       6.72680771        1
Ta       2.24226924       2.24226924       4.48453848        1
N        2.24226924       2.24226924       6.72680771        2
N        2.24226924       0.00000000       4.48453848        2
N        0.00000000       2.24226924       4.48453848        2
N        0.00000000       0.00000000       6.72680771        2
Hf       0.00000000       0.00000000       8.96907695        1
Nb       0.00000000       2.24226924      11.21134619        1
Ti       2.24226924       0.00000000      11.21134619        1
Zr       2.24226924       2.24226924       8.96907695        1
N        2.24226924       2.24226924      11.21134619        2
N        2.24226924       0.00000000       8.96907695        2
N        0.00000000       2.24226924       8.96907695        2
N        0.00000000       0.00000000      11.21134619        2
Hf       0.00000000       4.48453848       0.00000000        1
Nb       0.00000000       6.72680771       2.24226924        1
Ta       2.24226924       4.48453848       2.24226924        1
Hf       2.24226924       6.72680771       0.00000000        1
N        2.24226924       6.72680771       2.24226924        2
N        2.24226924       4.48453848       0.00000000        2
N        0.00000000       6.72680771       0.00000000        2
N        0.00000000       4.48453848       2.24226924        2
Zr       0.00000000       4.48453848       4.48453848        1
Nb       0.00000000       6.72680771       6.72680771        1
Zr       2.24226924       4.48453848       6.72680771        1
Hf       2.24226924       6.72680771       4.48453848        1
N        2.24226924       6.72680771       6.72680771        2
N        2.24226924       4.48453848       4.48453848        2
N        0.00000000       6.72680771       4.48453848        2
N        0.00000000       4.48453848       6.72680771        2
Ta       0.00000000       4.48453848       8.96907695        1
Ti       0.00000000       6.72680771      11.21134619        1
Hf       2.24226924       4.48453848      11.21134619        1
Nb       2.24226924       6.72680771       8.96907695        1
N        2.24226924       6.72680771      11.21134619        2
N        2.24226924       4.48453848       8.96907695        2
N        0.00000000       6.72680771       8.96907695        2
N        0.00000000       4.48453848      11.21134619        2
Ta       0.00000000       8.96907695       0.00000000        1
Ti       0.00000000      11.21134619       2.24226924        1
Ta       2.24226924       8.96907695       2.24226924        1
Ti       2.24226924      11.21134619       0.00000000        1
N        2.24226924      11.21134619       2.24226924        2
N        2.24226924       8.96907695       0.00000000        2
N        0.00000000      11.21134619       0.00000000        2
N        0.00000000       8.96907695       2.24226924        2
Zr       0.00000000       8.96907695       4.48453848        1
Nb       0.00000000      11.21134619       6.72680771        1
Ta       2.24226924       8.96907695       6.72680771        1
Zr       2.24226924      11.21134619       4.48453848        1
N        2.24226924      11.21134619       6.72680771        2
N        2.24226924       8.96907695       4.48453848        2
N        0.00000000      11.21134619       4.48453848        2
N        0.00000000       8.96907695       6.72680771        2
Zr       0.00000000       8.96907695       8.96907695        1
Hf       0.00000000      11.21134619      11.21134619        1
Zr       2.24226924       8.96907695      11.21134619        1
Ti       2.24226924      11.21134619       8.96907695        1
N        2.24226924      11.21134619      11.21134619        2
N        2.24226924       8.96907695       8.96907695        2
N        0.00000000      11.21134619       8.96907695        2
N        0.00000000       8.96907695      11.21134619        2
Ta       4.48453848       0.00000000       0.00000000        1
Ti       4.48453848       2.24226924       2.24226924        1
Nb       6.72680771       0.00000000       2.24226924        1
Hf       6.72680771       2.24226924       0.00000000        1
N        6.72680771       2.24226924       2.24226924        2
N        6.72680771       0.00000000       0.00000000        2
N        4.48453848       2.24226924       0.00000000        2
N        4.48453848       0.00000000       2.24226924        2
Zr       4.48453848       0.00000000       4.48453848        1
Ti       4.48453848       2.24226924       6.72680771        1
Ta       6.72680771       0.00000000       6.72680771        1
Ti       6.72680771       2.24226924       4.48453848        1
N        6.72680771       2.24226924       6.72680771        2
N        6.72680771       0.00000000       4.48453848        2
N        4.48453848       2.24226924       4.48453848        2
N        4.48453848       0.00000000       6.72680771        2
Ta       4.48453848       0.00000000       8.96907695        1
Hf       4.48453848       2.24226924      11.21134619        1
Zr       6.72680771       0.00000000      11.21134619        1
Ta       6.72680771       2.24226924       8.96907695        1
N        6.72680771       2.24226924      11.21134619        2
N        6.72680771       0.00000000       8.96907695        2
N        4.48453848       2.24226924       8.96907695        2
N        4.48453848       0.00000000      11.21134619        2
Nb       4.48453848       4.48453848       0.00000000        1
Hf       4.48453848       6.72680771       2.24226924        1
Zr       6.72680771       4.48453848       2.24226924        1
Ta       6.72680771       6.72680771       0.00000000        1
N        6.72680771       6.72680771       2.24226924        2
N        6.72680771       4.48453848       0.00000000        2
N        4.48453848       6.72680771       0.00000000        2
N        4.48453848       4.48453848       2.24226924        2
Hf       4.48453848       4.48453848       4.48453848        1
Hf       4.48453848       6.72680771       6.72680771        1
Zr       6.72680771       4.48453848       6.72680771        1
Ti       6.72680771       6.72680771       4.48453848        1
N        6.72680771       6.72680771       6.72680771        2
N        6.72680771       4.48453848       4.48453848        2
N        4.48453848       6.72680771       4.48453848        2
N        4.48453848       4.48453848       6.72680771        2
Ti       4.48453848       4.48453848       8.96907695        1
Nb       4.48453848       6.72680771      11.21134619        1
Ta       6.72680771       4.48453848      11.21134619        1
Zr       6.72680771       6.72680771       8.96907695        1
N        6.72680771       6.72680771      11.21134619        2
N        6.72680771       4.48453848       8.96907695        2
N        4.48453848       6.72680771       8.96907695        2
N        4.48453848       4.48453848      11.21134619        2
Hf       4.48453848       8.96907695       0.00000000        1
Ti       4.48453848      11.21134619       2.24226924        1
Nb       6.72680771       8.96907695       2.24226924        1
Nb       6.72680771      11.21134619       0.00000000        1
N        6.72680771      11.21134619       2.24226924        2
N        6.72680771       8.96907695       0.00000000        2
N        4.48453848      11.21134619       0.00000000        2
N        4.48453848       8.96907695       2.24226924        2
Ta       4.48453848       8.96907695       4.48453848        1
Zr       4.48453848      11.21134619       6.72680771        1
Ti       6.72680771       8.96907695       6.72680771        1
Hf       6.72680771      11.21134619       4.48453848        1
N        6.72680771      11.21134619       6.72680771        2
N        6.72680771       8.96907695       4.48453848        2
N        4.48453848      11.21134619       4.48453848        2
N        4.48453848       8.96907695       6.72680771        2
Ti       4.48453848       8.96907695       8.96907695        1
Nb       4.48453848      11.21134619      11.21134619        1
Hf       6.72680771       8.96907695      11.21134619        1
Nb       6.72680771      11.21134619       8.96907695        1
N        6.72680771      11.21134619      11.21134619        2
N        6.72680771       8.96907695       8.96907695        2
N        4.48453848      11.21134619       8.96907695        2
N        4.48453848       8.96907695      11.21134619        2
Nb       8.96907695       0.00000000       0.00000000        1
Nb       8.96907695       2.24226924       2.24226924        1
Hf      11.21134619       0.00000000       2.24226924        1
Nb      11.21134619       2.24226924       0.00000000        1
N       11.21134619       2.24226924       2.24226924        2
N       11.21134619       0.00000000       0.00000000        2
N        8.96907695       2.24226924       0.00000000        2
N        8.96907695       0.00000000       2.24226924        2
Hf       8.96907695       0.00000000       4.48453848        1
Hf       8.96907695       2.24226924       6.72680771        1
Nb      11.21134619       0.00000000       6.72680771        1
Hf      11.21134619       2.24226924       4.48453848        1
N       11.21134619       2.24226924       6.72680771        2
N       11.21134619       0.00000000       4.48453848        2
N        8.96907695       2.24226924       4.48453848        2
N        8.96907695       0.00000000       6.72680771        2
Ti       8.96907695       0.00000000       8.96907695        1
Hf       8.96907695       2.24226924      11.21134619        1
Nb      11.21134619       0.00000000      11.21134619        1
Ti      11.21134619       2.24226924       8.96907695        1
N       11.21134619       2.24226924      11.21134619        2
N       11.21134619       0.00000000       8.96907695        2
N        8.96907695       2.24226924       8.96907695        2
N        8.96907695       0.00000000      11.21134619        2
Ta       8.96907695       4.48453848       0.00000000        1
Zr       8.96907695       6.72680771       2.24226924        1
Hf      11.21134619       4.48453848       2.24226924        1
Nb      11.21134619       6.72680771       0.00000000        1
N       11.21134619       6.72680771       2.24226924        2
N       11.21134619       4.48453848       0.00000000        2
N        8.96907695       6.72680771       0.00000000        2
N        8.96907695       4.48453848       2.24226924        2
Ta       8.96907695       4.48453848       4.48453848        1
Ta       8.96907695       6.72680771       6.72680771        1
Nb      11.21134619       4.48453848       6.72680771        1
Ti      11.21134619       6.72680771       4.48453848        1
N       11.21134619       6.72680771       6.72680771        2
N       11.21134619       4.48453848       4.48453848        2
N        8.96907695       6.72680771       4.48453848        2
N        8.96907695       4.48453848       6.72680771        2
Ti       8.96907695       4.48453848       8.96907695        1
Ti       8.96907695       6.72680771      11.21134619        1
Zr      11.21134619       4.48453848      11.21134619        1
Zr      11.21134619       6.72680771       8.96907695        1
N       11.21134619       6.72680771      11.21134619        2
N       11.21134619       4.48453848       8.96907695        2
N        8.96907695       6.72680771       8.96907695        2
N        8.96907695       4.48453848      11.21134619        2
Ti       8.96907695       8.96907695       0.00000000        1
Ta       8.96907695      11.21134619       2.24226924        1
Hf      11.21134619       8.96907695       2.24226924        1
Zr      11.21134619      11.21134619       0.00000000        1
N       11.21134619      11.21134619       2.24226924        2
N       11.21134619       8.96907695       0.00000000        2
N        8.96907695      11.21134619       0.00000000        2
N        8.96907695       8.96907695       2.24226924        2
Ta       8.96907695       8.96907695       4.48453848        1
Zr       8.96907695      11.21134619       6.72680771        1
Zr      11.21134619       8.96907695       6.72680771        1
Zr      11.21134619      11.21134619       4.48453848        1
N       11.21134619      11.21134619       6.72680771        2
N       11.21134619       8.96907695       4.48453848        2
N        8.96907695      11.21134619       4.48453848        2
N        8.96907695       8.96907695       6.72680771        2
Ta       8.96907695       8.96907695       8.96907695        1
Hf       8.96907695      11.21134619      11.21134619        1
Ta      11.21134619       8.96907695      11.21134619        1
Nb      11.21134619      11.21134619       8.96907695        1
N       11.21134619      11.21134619      11.21134619        2
N       11.21134619       8.96907695       8.96907695        2
N        8.96907695      11.21134619       8.96907695        2
N        8.96907695       8.96907695      11.21134619        2
216
Lattice="13.453615425789224 0.0 0.0 0.0 13.453615425789224 0.0 0.0 0.0 13.453615425789224" Properties=species:S:1:pos:R:3:tags:I:1 sqs_abs_alpha=0.13213358070500927 energy=-2238.2921201783747 mc_step=400 energy_method=uma rosenbluth_W_new=6.222672145589159 rosenbluth_W_old=2.153099871381659 pbc="T T T"
Nb       0.00000000       0.00000000       0.00000000        1
Ti       0.00000000       2.24226924       2.24226924        1
Zr       2.24226924       0.00000000       2.24226924        1
Zr       2.24226924       2.24226924       0.00000000        1
N        2.24226924       2.24226924       2.24226924        2
N        2.24226924       0.00000000       0.00000000        2
N        0.00000000       2.24226924       0.00000000        2
N        0.00000000       0.00000000       2.24226924        2
Ta       0.00000000       0.00000000       4.48453848        1
Ta       0.00000000       2.24226924       6.72680771        1
Zr       2.24226924       0.00000000       6.72680771        1
Ta       2.24226924       2.24226924       4.48453848        1
N        2.24226924       2.24226924       6.72680771        2
N        2.24226924       0.00000000       4.48453848        2
N        0.00000000       2.24226924       4.48453848        2
N        0.00000000       0.00000000       6.72680771        2
Hf       0.00000000       0.00000000       8.96907695        1
Ti       0.00000000       2.24226924      11.21134619        1
Ti       2.24226924       0.00000000      11.21134619        1
Zr       2.24226924       2.24226924       8.96907695        1
N        2.24226924       2.24226924      11.21134619        2
N        2.24226924       0.00000000       8.96907695        2
N        0.00000000       2.24226924       8.96907695        2
N        0.00000000       0.00000000      11.21134619        2
Hf       0.00000000       4.48453848       0.00000000        1
Ta       0.00000000       6.72680771       2.24226924        1
Ti       2.24226924       4.48453848       2.24226924        1
Zr       2.24226924       6.72680771       0.00000000        1
N        2.24226924       6.72680771       2.24226924        2
N        2.24226924       4.48453848       0.00000000        2
N        0.00000000       6.72680771       0.00000000        2
N        0.00000000       4.48453848       2.24226924        2
Zr       0.00000000       4.48453848       4.48453848        1
Nb       0.00000000       6.72680771       6.72680771        1
Ti       2.24226924       4.48453848       6.72680771        1
Hf       2.24226924       6.72680771       4.48453848        1
N        2.24226924       6.72680771       6.72680771        2
N        2.24226924       4.48453848       4.48453848        2
N        0.00000000       6.72680771       4.48453848        2
N        0.00000000       4.48453848       6.72680771        2
Nb       0.00000000       4.48453848       8.96907695        1
Ti       0.00000000       6.72680771      11.21134619        1
Hf       2.24226924       4.48453848      11.21134619        1
Ta       2.24226924       6.72680771       8.96907695        1
N        2.24226924       6.72680771      11.21134619        2
N        2.24226924       4.48453848       8.96907695        2
N        0.00000000       6.72680771       8.96907695        2
N        0.00000000       4.48453848      11.21134619        2
Nb       0.00000000       8.96907695       0.00000000        1
Ti       0.00000000      11.21134619       2.24226924        1
Hf       2.24226924       8.96907695       2.24226924        1
Ti       2.24226924      11.21134619       0.00000000        1
N        2.24226924      11.21134619       2.24226924        2
N        2.24226924       8.96907695       0.00000000        2
N        0.00000000      11.21134619       0.00000000        2
N        0.00000000       8.96907695       2.24226924        2
Zr       0.00000000       8.96907695       4.48453848        1
Ti       0.00000000      11.21134619       6.72680771        1
Ti       2.24226924       8.96907695       6.72680771        1
Zr       2.24226924      11.21134619       4.48453848        1
N        2.24226924      11.21134619       6.72680771        2
N        2.24226924       8.96907695       4.48453848        2
N        0.00000000      11.21134619       4.48453848        2
N        0.00000000       8.96907695       6.72680771        2
Ta       0.00000000       8.96907695       8.96907695        1
Nb       0.00000000      11.21134619      11.21134619        1
Ti       2.24226924       8.96907695      11.21134619        1
Nb       2.24226924      11.21134619       8.96907695        1
N        2.24226924      11.21134619      11.21134619        2
N        2.24226924       8.96907695       8.96907695        2
N        0.00000000      11.21134619       8.96907695        2
N        0.00000000       8.96907695      11.21134619        2
Hf       4.48453848       0.00000000       0.00000000        1
Ti       4.48453848       2.24226924       2.24226924        1
Nb       6.72680771       0.00000000       2.24226924        1
Hf       6.72680771       2.24226924       0.00000000        1
N        6.72680771       2.24226924       2.24226924        2
N        6.72680771       0.00000000       0.00000000        2
N        4.48453848       2.24226924       0.00000000        2
N        4.48453848       0.00000000       2.24226924        2
Ta       4.48453848       0.00000000       4.48453848        1
Ti       4.48453848       2.24226924       6.72680771        1
Ta       6.72680771       0.00000000       6.72680771        1
Nb       6.72680771       2.24226924       4.48453848        1
N        6.72680771       2.24226924       6.72680771        2
N        6.72680771       0.00000000       4.48453848        2
N        4.48453848       2.24226924       4.48453848        2
N        4.48453848       0.00000000       6.72680771        2
Hf       4.48453848       0.00000000       8.96907695        1
Ta       4.48453848       2.24226924      11.21134619        1
Hf       6.72680771       0.00000000      11.21134619        1
Ta       6.72680771       2.24226924       8.96907695        1
N        6.72680771       2.24226924      11.21134619        2
N        6.72680771       0.00000000       8.96907695        2
N        4.48453848       2.24226924       8.96907695        2
N        4.48453848       0.00000000      11.21134619        2
Nb       4.48453848       4.48453848       0.00000000        1
Hf       4.48453848       6.72680771       2.24226924        1
Hf       6.72680771       4.48453848       2.24226924        1
Ti       6.72680771       6.72680771       0.00000000        1
N        6.72680771       6.72680771       2.24226924        2
N        6.72680771       4.48453848       0.00000000        2
N        4.48453848       6.72680771       0.00000000        2
N        4.48453848       4.48453848       2.24226924        2
Zr       4.48453848       4.48453848       4.48453848        1
Zr       4.48453848       6.72680771       6.72680771        1
Zr       6.72680771       4.48453848       6.72680771        1
Ti       6.72680771       6.72680771       4.48453848        1
N        6.72680771       6.72680771       6.72680771        2
N        6.72680771       4.48453848       4.48453848        2
N        4.48453848       6.72680771       4.48453848        2
N        4.48453848       4.48453848       6.72680771        2
Nb       4.48453848       4.48453848       8.96907695        1
Nb       4.48453848       6.72680771      11.21134619        1
Hf       6.72680771       4.48453848      11.21134619        1
Ta       6.72680771       6.72680771       8.96907695        1
N        6.72680771       6.72680771      11.21134619        2
N        6.72680771       4.48453848       8.96907695        2
N        4.48453848       6.72680771       8.96907695        2
N        4.48453848       4.48453848      11.21134619        2
Hf       4.48453848       8.96907695       0.00000000        1
Nb       4.48453848      11.21134619       2.24226924        1
Nb       6.72680771       8.96907695       2.24226924        1
Ta       6.72680771      11.21134619       0.00000000        1
N        6.72680771      11.21134619       2.24226924        2
N        6.72680771       8.96907695       0.00000000        2
N        4.48453848      11.21134619       0.00000000        2
N        4.48453848       8.96907695       2.24226924        2
Ta       4.48453848       8.96907695       4.48453848        1
Zr       4.48453848      11.21134619       6.72680771        1
Ti       6.72680771       8.96907695       6.72680771        1
Hf       6.72680771      11.21134619       4.48453848        1
N        6.72680771      11.21134619       6.72680771        2
N        6.72680771       8.96907695       4.48453848        2
N        4.48453848      11.21134619       4.48453848        2
N        4.48453848       8.96907695       6.72680771        2
Ta       4.48453848       8.96907695       8.96907695        1
Ta       4.48453848      11.21134619      11.21134619        1
Hf       6.72680771       8.96907695      11.21134619        1
Nb       6.72680771      11.21134619       8.96907695        1
N        6.72680771      11.21134619      11.21134619        2
N        6.72680771       8.96907695       8.96907695        2
N        4.48453848      11.21134619       8.96907695        2
N        4.48453848       8.96907695      11.21134619        2
Nb       8.96907695       0.00000000       0.00000000        1
Ti       8.96907695       2.24226924       2.24226924        1
Hf      11.21134619       0.00000000       2.24226924        1
Nb      11.21134619       2.24226924       0.00000000        1
N       11.21134619       2.24226924       2.24226924        2
N       11.21134619       0.00000000       0.00000000        2
N        8.96907695       2.24226924       0.00000000        2
N        8.96907695       0.00000000       2.24226924        2
Zr       8.96907695       0.00000000       4.48453848        1
Hf       8.96907695       2.24226924       6.72680771        1
Zr      11.21134619       0.00000000       6.72680771        1
Zr      11.21134619       2.24226924       4.48453848        1
N       11.21134619       2.24226924       6.72680771        2
N       11.21134619       0.00000000       4.48453848        2
N        8.96907695       2.24226924       4.48453848        2
N        8.96907695       0.00000000       6.72680771        2
Ti       8.96907695       0.00000000       8.96907695        1
Zr       8.96907695       2.24226924      11.21134619        1
Ta      11.21134619       0.00000000      11.21134619        1
Ta      11.21134619       2.24226924       8.96907695        1
N       11.21134619       2.24226924      11.21134619        2
N       11.21134619       0.00000000       8.96907695        2
N        8.96907695       2.24226924       8.96907695        2
N        8.96907695       0.00000000      11.21134619        2
Ta       8.96907695       4.48453848       0.00000000        1
Zr       8.96907695       6.72680771       2.24226924        1
Hf      11.21134619       4.48453848       2.24226924        1
Nb      11.21134619       6.72680771       0.00000000        1
N       11.21134619       6.72680771       2.24226924        2
N       11.21134619       4.48453848       0.00000000        2
N        8.96907695       6.72680771       0.00000000        2
N        8.96907695       4.48453848       2.24226924        2
Zr       8.96907695       4.48453848       4.48453848        1
Ta       8.96907695       6.72680771       6.72680771        1
Nb      11.21134619       4.48453848       6.72680771        1
Hf      11.21134619       6.72680771       4.48453848        1
N       11.21134619       6.72680771       6.72680771        2
N       11.21134619       4.48453848       4.48453848        2
N        8.96907695       6.72680771       4.48453848        2
N        8.96907695       4.48453848       6.72680771        2
Ti       8.96907695       4.48453848       8.96907695        1
Zr       8.96907695       6.72680771      11.21134619        1
Nb      11.21134619       4.48453848      11.21134619        1
Hf      11.21134619       6.72680771       8.96907695        1
N       11.21134619       6.72680771      11.21134619        2
N       11.21134619       4.48453848       8.96907695        2
N        8.96907695       6.72680771       8.96907695        2
N        8.96907695       4.48453848      11.21134619        2
Hf       8.96907695       8.96907695       0.00000000        1
Nb       8.96907695      11.21134619       2.24226924        1
Ti      11.21134619       8.96907695       2.24226924        1
Zr      11.21134619      11.21134619       0.00000000        1
N       11.21134619      11.21134619       2.24226924        2
N       11.21134619       8.96907695       0.00000000        2
N        8.96907695      11.21134619       0.00000000        2
N        8.96907695       8.96907695       2.24226924        2
Ta       8.96907695       8.96907695       4.48453848        1
Zr       8.96907695      11.21134619       6.72680771        1
Ti      11.21134619       8.96907695       6.72680771        1
Zr      11.21134619      11.21134619       4.48453848        1
N       11.21134619      11.21134619       6.72680771        2
N       11.21134619       8.96907695       4.48453848        2
N        8.96907695      11.21134619       4.48453848        2
N        8.96907695       8.96907695       6.72680771        2
Ti       8.96907695       8.96907695       8.96907695        1
Hf       8.96907695      11.21134619      11.21134619        1
Ta      11.21134619       8.96907695      11.21134619        1
Nb      11.21134619      11.21134619       8.96907695        1
N       11.21134619      11.21134619      11.21134619        2
N       11.21134619       8.96907695       8.96907695        2
N        8.96907695      11.21134619       8.96907695        2
N        8.96907695       8.96907695      11.21134619        2
216
Lattice="13.453615425789224 0.0 0.0 0.0 13.453615425789224 0.0 0.0 0.0 13.453615425789224" Properties=species:S:1:pos:R:3:tags:I:1 sqs_abs_alpha=0.10435823916343397 energy=-2238.328346720957 mc_step=450 energy_method=uma rosenbluth_W_new=4.980137086402851 rosenbluth_W_old=2.238374904511732 pbc="T T T"
Hf       0.00000000       0.00000000       0.00000000        1
Ti       0.00000000       2.24226924       2.24226924        1
Zr       2.24226924       0.00000000       2.24226924        1
Zr       2.24226924       2.24226924       0.00000000        1
N        2.24226924       2.24226924       2.24226924        2
N        2.24226924       0.00000000       0.00000000        2
N        0.00000000       2.24226924       0.00000000        2
N        0.00000000       0.00000000       2.24226924        2
Nb       0.00000000       0.00000000       4.48453848        1
Ta       0.00000000       2.24226924       6.72680771        1
Ti       2.24226924       0.00000000       6.72680771        1
Ta       2.24226924       2.24226924       4.48453848        1
N        2.24226924       2.24226924       6.72680771        2
N        2.24226924       0.00000000       4.48453848        2
N        0.00000000       2.24226924       4.48453848        2
N        0.00000000       0.00000000       6.72680771        2
Hf       0.00000000       0.00000000       8.96907695        1
Zr       0.00000000       2.24226924      11.21134619        1
Ti       2.24226924       0.00000000      11.21134619        1
Zr       2.24226924       2.24226924       8.96907695        1
N        2.24226924       2.24226924      11.21134619        2
N        2.24226924       0.00000000       8.96907695        2
N        0.00000000       2.24226924       8.96907695        2
N        0.00000000       0.00000000      11.21134619        2
Hf       0.00000000       4.48453848       0.00000000        1
Zr       0.00000000       6.72680771       2.24226924        1
Ta       2.24226924       4.48453848       2.24226924        1
Ti       2.24226924       6.72680771       0.00000000        1
N        2.24226924       6.72680771       2.24226924        2
N        2.24226924       4.48453848       0.00000000        2
N        0.00000000       6.72680771       0.00000000        2
N        0.00000000       4.48453848       2.24226924        2
Ta       0.00000000       4.48453848       4.48453848        1
Nb       0.00000000       6.72680771       6.72680771        1
Ti       2.24226924       4.48453848       6.72680771        1
Hf       2.24226924       6.72680771       4.48453848        1
N        2.24226924       6.72680771       6.72680771        2
N        2.24226924       4.48453848       4.48453848        2
N        0.00000000       6.72680771       4.48453848        2
N        0.00000000       4.48453848       6.72680771        2
Hf       0.00000000       4.48453848       8.96907695        1
Ta       0.00000000       6.72680771      11.21134619        1
Nb       2.24226924       4.48453848      11.21134619        1
Ta       2.24226924       6.72680771       8.96907695        1
N        2.24226924       6.72680771      11.21134619        2
N        2.24226924       4.48453848       8.96907695        2
N        0.00000000       6.72680771       8.96907695        2
N        0.00000000       4.48453848      11.21134619        2
Nb       0.00000000       8.96907695       0.00000000        1
Ti       0.00000000      11.21134619       2.24226924        1
Hf       2.24226924       8.96907695       2.24226924        1
Ti       2.24226924      11.21134619       0.00000000        1
N        2.24226924      11.21134619       2.24226924        2
N        2.24226924       8.96907695       0.00000000        2
N        0.00000000      11.21134619       0.00000000        2
N        0.00000000       8.96907695       2.24226924        2
Ta       0.00000000       8.96907695       4.48453848        1
Hf       0.00000000      11.21134619       6.72680771        1
Ti       2.24226924       8.96907695       6.72680771        1
Zr       2.24226924      11.21134619       4.48453848        1
N        2.24226924      11.21134619       6.72680771        2
N        2.24226924       8.96907695       4.48453848        2
N        0.00000000      11.21134619       4.48453848        2
N        0.00000000       8.96907695       6.72680771        2
Zr       0.00000000       8.96907695       8.96907695        1
Ta       0.00000000      11.21134619      11.21134619        1
Hf       2.24226924       8.96907695      11.21134619        1
Ta       2.24226924      11.21134619       8.96907695        1
N        2.24226924      11.21134619      11.21134619        2
N        2.24226924       8.96907695       8.96907695        2
N        0.00000000      11.21134619       8.96907695        2
N        0.00000000       8.96907695      11.21134619        2
Hf       4.48453848       0.00000000       0.00000000        1
Ti       4.48453848       2.24226924       2.24226924        1
Nb       6.72680771       0.00000000       2.24226924        1
Zr       6.72680771       2.24226924       0.00000000        1
N        6.72680771       2.24226924       2.24226924        2
N        6.72680771       0.00000000       0.00000000        2
N        4.48453848       2.24226924       0.00000000        2
N        4.48453848       0.00000000       2.24226924        2
Hf       4.48453848       0.00000000       4.48453848        1
Ti       4.48453848       2.24226924       6.72680771        1
Nb       6.72680771       0.00000000       6.72680771        1
Ti       6.72680771       2.24226924       4.48453848        1
N        6.72680771       2.24226924       6.72680771        2
N        6.72680771       0.00000000       4.48453848        2
N        4.48453848       2.24226924       4.48453848        2
N        4.48453848       0.00000000       6.72680771        2
Hf       4.48453848       0.00000000       8.96907695        1
Nb       4.48453848       2.24226924      11.21134619        1
Hf       6.72680771       0.00000000      11.21134619        1
Ta       6.72680771       2.24226924       8.96907695        1
N        6.72680771       2.24226924      11.21134619        2
N        6.72680771       0.00000000       8.96907695        2
N        4.48453848       2.24226924       8.96907695        2
N        4.48453848       0.00000000      11.21134619        2
Ta       4.48453848       4.48453848       0.00000000        1
Ti       4.48453848       6.72680771       2.24226924        1
Zr       6.72680771       4.48453848       2.24226924        1
Ta       6.72680771       6.72680771       0.00000000        1
N        6.72680771       6.72680771       2.24226924        2
N        6.72680771       4.48453848       0.00000000        2
N        4.48453848       6.72680771       0.00000000        2
N        4.48453848       4.48453848       2.24226924        2
Ti       4.48453848       4.48453848       4.48453848        1
Zr       4.48453848       6.72680771       6.72680771        1
Hf       6.72680771       4.48453848       6.72680771        1
Ti       6.72680771       6.72680771       4.48453848        1
N        6.72680771       6.72680771       6.72680771        2
N        6.72680771       4.48453848       4.48453848        2
N        4.48453848       6.72680771       4.48453848        2
N        4.48453848       4.48453848       6.72680771        2
Nb       4.48453848       4.48453848       8.96907695        1
Zr       4.48453848       6.72680771      11.21134619        1
Ta       6.72680771       4.48453848      11.21134619        1
Ta       6.72680771       6.72680771       8.96907695        1
N        6.72680771       6.72680771      11.21134619        2
N        6.72680771       4.48453848       8.96907695        2
N        4.48453848       6.72680771       8.96907695        2
N        4.48453848       4.48453848      11.21134619        2
Hf       4.48453848       8.96907695       0.00000000        1
Nb       4.48453848      11.21134619       2.24226924        1
Nb       6.72680771       8.96907695       2.24226924        1
Ta       6.72680771      11.21134619       0.00000000        1
N        6.72680771      11.21134619       2.24226924        2
N        6.72680771       8.96907695       0.00000000        2
N        4.48453848      11.21134619       0.00000000        2
N        4.48453848       8.96907695       2.24226924        2
Ta       4.48453848       8.96907695       4.48453848        1
Zr       4.48453848      11.21134619       6.72680771        1
Ti       6.72680771       8.96907695       6.72680771        1
Hf       6.72680771      11.21134619       4.48453848        1
N        6.72680771      11.21134619       6.72680771        2
N        6.72680771       8.96907695       4.48453848        2
N        4.48453848      11.21134619       4.48453848        2
N        4.48453848       8.96907695       6.72680771        2
Zr       4.48453848       8.96907695       8.96907695        1
Hf       4.48453848      11.21134619      11.21134619        1
Nb       6.72680771       8.96907695      11.21134619        1
Zr       6.72680771      11.21134619       8.96907695        1
N        6.72680771      11.21134619      11.21134619        2
N        6.72680771       8.96907695       8.96907695        2
N        4.48453848      11.21134619       8.96907695        2
N        4.48453848       8.96907695      11.21134619        2
Nb       8.96907695       0.00000000       0.00000000        1
Ti       8.96907695       2.24226924       2.24226924        1
Hf      11.21134619       0.00000000       2.24226924        1
Nb      11.21134619       2.24226924       0.00000000        1
N       11.21134619       2.24226924       2.24226924        2
N       11.21134619       0.00000000       0.00000000        2
N        8.96907695       2.24226924       0.00000000        2
N        8.96907695       0.00000000       2.24226924        2
Nb       8.96907695       0.00000000       4.48453848        1
Ti       8.96907695       2.24226924       6.72680771        1
Zr      11.21134619       0.00000000       6.72680771        1
Hf      11.21134619       2.24226924       4.48453848        1
N       11.21134619       2.24226924       6.72680771        2
N       11.21134619       0.00000000       4.48453848        2
N        8.96907695       2.24226924       4.48453848        2
N        8.96907695       0.00000000       6.72680771        2
Ti       8.96907695       0.00000000       8.96907695        1
Zr       8.96907695       2.24226924      11.21134619        1
Ta      11.21134619       0.00000000      11.21134619        1
Ta      11.21134619       2.24226924       8.96907695        1
N       11.21134619       2.24226924      11.21134619        2
N       11.21134619       0.00000000       8.96907695        2
N        8.96907695       2.24226924       8.96907695        2
N        8.96907695       0.00000000      11.21134619        2
Ti       8.96907695       4.48453848       0.00000000        1
Ti       8.96907695       6.72680771       2.24226924        1
Hf      11.21134619       4.48453848       2.24226924        1
Nb      11.21134619       6.72680771       0.00000000        1
N       11.21134619       6.72680771       2.24226924        2
N       11.21134619       4.48453848       0.00000000        2
N        8.96907695       6.72680771       0.00000000        2
N        8.96907695       4.48453848       2.24226924        2
Zr       8.96907695       4.48453848       4.48453848        1
Zr       8.96907695       6.72680771       6.72680771        1
Nb      11.21134619       4.48453848       6.72680771        1
Ta      11.21134619       6.72680771       4.48453848        1
N       11.21134619       6.72680771       6.72680771        2
N       11.21134619       4.48453848       4.48453848        2
N        8.96907695       6.72680771       4.48453848        2
N        8.96907695       4.48453848       6.72680771        2
Nb       8.96907695       4.48453848       8.96907695        1
Hf       8.96907695       6.72680771      11.21134619        1
Nb      11.21134619       4.48453848      11.21134619        1
Hf      11.21134619       6.72680771       8.96907695        1
N       11.21134619       6.72680771      11.21134619        2
N       11.21134619       4.48453848       8.96907695        2
N        8.96907695       6.72680771       8.96907695        2
N        8.96907695       4.48453848      11.21134619        2
Nb       8.96907695       8.96907695       0.00000000        1
Hf       8.96907695      11.21134619       2.24226924        1
Nb      11.21134619       8.96907695       2.24226924        1
Zr      11.21134619      11.21134619       0.00000000        1
N       11.21134619      11.21134619       2.24226924        2
N       11.21134619       8.96907695       0.00000000        2
N        8.96907695      11.21134619       0.00000000        2
N        8.96907695       8.96907695       2.24226924        2
Zr       8.96907695       8.96907695       4.48453848        1
Zr       8.96907695      11.21134619       6.72680771        1
Ti      11.21134619       8.96907695       6.72680771        1
Ti      11.21134619      11.21134619       4.48453848        1
N       11.21134619      11.21134619       6.72680771        2
N       11.21134619       8.96907695       4.48453848        2
N        8.96907695      11.21134619       4.48453848        2
N        8.96907695       8.96907695       6.72680771        2
Ta       8.96907695       8.96907695       8.96907695        1
Ta       8.96907695      11.21134619      11.21134619        1
Zr      11.21134619       8.96907695      11.21134619        1
Nb      11.21134619      11.21134619       8.96907695        1
N       11.21134619      11.21134619      11.21134619        2
N       11.21134619       8.96907695       8.96907695        2
N        8.96907695      11.21134619       8.96907695        2
N        8.96907695       8.96907695      11.21134619        2
216
Lattice="13.453615425789224 0.0 0.0 0.0 13.453615425789224 0.0 0.0 0.0 13.453615425789224" Properties=species:S:1:pos:R:3:tags:I:1 sqs_abs_alpha=0.1053870804520155 energy=-2238.538792156634 mc_step=500 energy_method=uma rosenbluth_W_new=2.4533068957344484 rosenbluth_W_old=6.3988385573458615 pbc="T T T"
Hf       0.00000000       0.00000000       0.00000000        1
Ti       0.00000000       2.24226924       2.24226924        1
Zr       2.24226924       0.00000000       2.24226924        1
Nb       2.24226924       2.24226924       0.00000000        1
N        2.24226924       2.24226924       2.24226924        2
N        2.24226924       0.00000000       0.00000000        2
N        0.00000000       2.24226924       0.00000000        2
N        0.00000000       0.00000000       2.24226924        2
Nb       0.00000000       0.00000000       4.48453848        1
Ta       0.00000000       2.24226924       6.72680771        1
Ta       2.24226924       0.00000000       6.72680771        1
Nb       2.24226924       2.24226924       4.48453848        1
N        2.24226924       2.24226924       6.72680771        2
N        2.24226924       0.00000000       4.48453848        2
N        0.00000000       2.24226924       4.48453848        2
N        0.00000000       0.00000000       6.72680771        2
Hf       0.00000000       0.00000000       8.96907695        1
Zr       0.00000000       2.24226924      11.21134619        1
Hf       2.24226924       0.00000000      11.21134619        1
Zr       2.24226924       2.24226924       8.96907695        1
N        2.24226924       2.24226924      11.21134619        2
N        2.24226924       0.00000000       8.96907695        2
N        0.00000000       2.24226924       8.96907695        2
N        0.00000000       0.00000000      11.21134619        2
Zr       0.00000000       4.48453848       0.00000000        1
Zr       0.00000000       6.72680771       2.24226924        1
Ta       2.24226924       4.48453848       2.24226924        1
Ti       2.24226924       6.72680771       0.00000000        1
N        2.24226924       6.72680771       2.24226924        2
N        2.24226924       4.48453848       0.00000000        2
N        0.00000000       6.72680771       0.00000000        2
N        0.00000000       4.48453848       2.24226924        2
Ta       0.00000000       4.48453848       4.48453848        1
Nb       0.00000000       6.72680771       6.72680771        1
Zr       2.24226924       4.48453848       6.72680771        1
Hf       2.24226924       6.72680771       4.48453848        1
N        2.24226924       6.72680771       6.72680771        2
N        2.24226924       4.48453848       4.48453848        2
N        0.00000000       6.72680771       4.48453848        2
N        0.00000000       4.48453848       6.72680771        2
Nb       0.00000000       4.48453848       8.96907695        1
Ta       0.00000000       6.72680771      11.21134619        1
Nb       2.24226924       4.48453848      11.21134619        1
Ta       2.24226924       6.72680771       8.96907695        1
N        2.24226924       6.72680771      11.21134619        2
N        2.24226924       4.48453848       8.96907695        2
N        0.00000000       6.72680771       8.96907695        2
N        0.00000000       4.48453848      11.21134619        2
Nb       0.00000000       8.96907695       0.00000000        1
Ti       0.00000000      11.21134619       2.24226924        1
Ti       2.24226924       8.96907695       2.24226924        1
Ti       2.24226924      11.21134619       0.00000000        1
N        2.24226924      11.21134619       2.24226924        2
N        2.24226924       8.96907695       0.00000000        2
N        0.00000000      11.21134619       0.00000000        2
N        0.00000000       8.96907695       2.24226924        2
Nb       0.00000000       8.96907695       4.48453848        1
Zr       0.00000000      11.21134619       6.72680771        1
Ta       2.24226924       8.96907695       6.72680771        1
Zr       2.24226924      11.21134619       4.48453848        1
N        2.24226924      11.21134619       6.72680771        2
N        2.24226924       8.96907695       4.48453848        2
N        0.00000000      11.21134619       4.48453848        2
N        0.00000000       8.96907695       6.72680771        2
Hf       0.00000000       8.96907695       8.96907695        1
Ta       0.00000000      11.21134619      11.21134619        1
Hf       2.24226924       8.96907695      11.21134619        1
Ti       2.24226924      11.21134619       8.96907695        1
N        2.24226924      11.21134619      11.21134619        2
N        2.24226924       8.96907695       8.96907695        2
N        0.00000000      11.21134619       8.96907695        2
N        0.00000000       8.96907695      11.21134619        2
Nb       4.48453848       0.00000000       0.00000000        1
Ta       4.48453848       2.24226924       2.24226924        1
Nb       6.72680771       0.00000000       2.24226924        1
Zr       6.72680771       2.24226924       0.00000000        1
N        6.72680771       2.24226924       2.24226924        2
N        6.72680771       0.00000000       0.00000000        2
N        4.48453848       2.24226924       0.00000000        2
N        4.48453848       0.00000000       2.24226924        2
Zr       4.48453848       0.00000000       4.48453848        1
Ti       4.48453848       2.24226924       6.72680771        1
Ti       6.72680771       0.00000000       6.72680771        1
Nb       6.72680771       2.24226924       4.48453848        1
N        6.72680771       2.24226924       6.72680771        2
N        6.72680771       0.00000000       4.48453848        2
N        4.48453848       2.24226924       4.48453848        2
N        4.48453848       0.00000000       6.72680771        2
Ta       4.48453848       0.00000000       8.96907695        1
Zr       4.48453848       2.24226924      11.21134619        1
Zr       6.72680771       0.00000000      11.21134619        1
Ta       6.72680771       2.24226924       8.96907695        1
N        6.72680771       2.24226924      11.21134619        2
N        6.72680771       0.00000000       8.96907695        2
N        4.48453848       2.24226924       8.96907695        2
N        4.48453848       0.00000000      11.21134619        2
Ta       4.48453848       4.48453848       0.00000000        1
Ti       4.48453848       6.72680771       2.24226924        1
Hf       6.72680771       4.48453848       2.24226924        1
Ta       6.72680771       6.72680771       0.00000000        1
N        6.72680771       6.72680771       2.24226924        2
N        6.72680771       4.48453848       0.00000000        2
N        4.48453848       6.72680771       0.00000000        2
N        4.48453848       4.48453848       2.24226924        2
Ti       4.48453848       4.48453848       4.48453848        1
Zr       4.48453848       6.72680771       6.72680771        1
Hf       6.72680771       4.48453848       6.72680771        1
Ti       6.72680771       6.72680771       4.48453848        1
N        6.72680771       6.72680771       6.72680771        2
N        6.72680771       4.48453848       4.48453848        2
N        4.48453848       6.72680771       4.48453848        2
N        4.48453848       4.48453848       6.72680771        2
Ti       4.48453848       4.48453848       8.96907695        1
Zr       4.48453848       6.72680771      11.21134619        1
Ta       6.72680771       4.48453848      11.21134619        1
Ti       6.72680771       6.72680771       8.96907695        1
N        6.72680771       6.72680771      11.21134619        2
N        6.72680771       4.48453848       8.96907695        2
N        4.48453848       6.72680771       8.96907695        2
N        4.48453848       4.48453848      11.21134619        2
Hf       4.48453848       8.96907695       0.00000000        1
Nb       4.48453848      11.21134619       2.24226924        1
Zr       6.72680771       8.96907695       2.24226924        1
Hf       6.72680771      11.21134619       0.00000000        1
N        6.72680771      11.21134619       2.24226924        2
N        6.72680771       8.96907695       0.00000000        2
N        4.48453848      11.21134619       0.00000000        2
N        4.48453848       8.96907695       2.24226924        2
Ta       4.48453848       8.96907695       4.48453848        1
Hf       4.48453848      11.21134619       6.72680771        1
Ta       6.72680771       8.96907695       6.72680771        1
Hf       6.72680771      11.21134619       4.48453848        1
N        6.72680771      11.21134619       6.72680771        2
N        6.72680771       8.96907695       4.48453848        2
N        4.48453848      11.21134619       4.48453848        2
N        4.48453848       8.96907695       6.72680771        2
Hf       4.48453848       8.96907695       8.96907695        1
Ta       4.48453848      11.21134619      11.21134619        1
Zr       6.72680771       8.96907695      11.21134619        1
Zr       6.72680771      11.21134619       8.96907695        1
N        6.72680771      11.21134619      11.21134619        2
N        6.72680771       8.96907695       8.96907695        2
N        4.48453848      11.21134619       8.96907695        2
N        4.48453848       8.96907695      11.21134619        2
Nb       8.96907695       0.00000000       0.00000000        1
Ti       8.96907695       2.24226924       2.24226924        1
Hf      11.21134619       0.00000000       2.24226924        1
Nb      11.21134619       2.24226924       0.00000000        1
N       11.21134619       2.24226924       2.24226924        2
N       11.21134619       0.00000000       0.00000000        2
N        8.96907695       2.24226924       0.00000000        2
N        8.96907695       0.00000000       2.24226924        2
Ta       8.96907695       0.00000000       4.48453848        1
Ta       8.96907695       2.24226924       6.72680771        1
Zr      11.21134619       0.00000000       6.72680771        1
Hf      11.21134619       2.24226924       4.48453848        1
N       11.21134619       2.24226924       6.72680771        2
N       11.21134619       0.00000000       4.48453848        2
N        8.96907695       2.24226924       4.48453848        2
N        8.96907695       0.00000000       6.72680771        2
Hf       8.96907695       0.00000000       8.96907695        1
Ti       8.96907695       2.24226924      11.21134619        1
Ti      11.21134619       0.00000000      11.21134619        1
Ti      11.21134619       2.24226924       8.96907695        1
N       11.21134619       2.24226924      11.21134619        2
N       11.21134619       0.00000000       8.96907695        2
N        8.96907695       2.24226924       8.96907695        2
N        8.96907695       0.00000000      11.21134619        2
Zr       8.96907695       4.48453848       0.00000000        1
Ti       8.96907695       6.72680771       2.24226924        1
Hf      11.21134619       4.48453848       2.24226924        1
Nb      11.21134619       6.72680771       0.00000000        1
N       11.21134619       6.72680771       2.24226924        2
N       11.21134619       4.48453848       0.00000000        2
N        8.96907695       6.72680771       0.00000000        2
N        8.96907695       4.48453848       2.24226924        2
Nb       8.96907695       4.48453848       4.48453848        1
Zr       8.96907695       6.72680771       6.72680771        1
Hf      11.21134619       4.48453848       6.72680771        1
Ta      11.21134619       6.72680771       4.48453848        1
N       11.21134619       6.72680771       6.72680771        2
N       11.21134619       4.48453848       4.48453848        2
N        8.96907695       6.72680771       4.48453848        2
N        8.96907695       4.48453848       6.72680771        2
Zr       8.96907695       4.48453848       8.96907695        1
Hf       8.96907695       6.72680771      11.21134619        1
Ti      11.21134619       4.48453848      11.21134619        1
Hf      11.21134619       6.72680771       8.96907695        1
N       11.21134619       6.72680771      11.21134619        2
N       11.21134619       4.48453848       8.96907695        2
N        8.96907695       6.72680771       8.96907695        2
N        8.96907695       4.48453848      11.21134619        2
Nb       8.96907695       8.96907695       0.00000000        1
Hf       8.96907695      11.21134619       2.24226924        1
Nb      11.21134619       8.96907695       2.24226924        1
Zr      11.21134619      11.21134619       0.00000000        1
N       11.21134619      11.21134619       2.24226924        2
N       11.21134619       8.96907695       0.00000000        2
N        8.96907695      11.21134619       0.00000000        2
N        8.96907695       8.96907695       2.24226924        2
Hf       8.96907695       8.96907695       4.48453848        1
Nb       8.96907695      11.21134619       6.72680771        1
Ti      11.21134619       8.96907695       6.72680771        1
Ti      11.21134619      11.21134619       4.48453848        1
N       11.21134619      11.21134619       6.72680771        2
N       11.21134619       8.96907695       4.48453848        2
N        8.96907695      11.21134619       4.48453848        2
N        8.96907695       8.96907695       6.72680771        2
Ta       8.96907695       8.96907695       8.96907695        1
Ti       8.96907695      11.21134619      11.21134619        1
Nb      11.21134619       8.96907695      11.21134619        1
Nb      11.21134619      11.21134619       8.96907695        1
N       11.21134619      11.21134619      11.21134619        2
N       11.21134619       8.96907695       8.96907695        2
N        8.96907695      11.21134619       8.96907695        2
N        8.96907695       8.96907695      11.21134619        2
