216
Lattice="13.453615425789224 0.0 0.0 0.0 13.453615425789224 0.0 0.0 0.0 13.453615425789224" Properties=species:S:1:pos:R:3:tags:I:1 sqs_abs_alpha=0.12494855793557091 energy=-2238.6213928881466 mc_step=100 energy_method=uma rosenbluth_W_new=4.802551144583587 rosenbluth_W_old=5.3563354707210316 pbc="T T T"
Zr       0.00000000       0.00000000       0.00000000        1
Zr       0.00000000       2.24226924       2.24226924        1
Zr       2.24226924       0.00000000       2.24226924        1
Nb       2.24226924       2.24226924       0.00000000        1
N        2.24226924       2.24226924       2.24226924        2
N        2.24226924       0.00000000       0.00000000        2
N        0.00000000       2.24226924       0.00000000        2
N        0.00000000       0.00000000       2.24226924        2
Ti       0.00000000       0.00000000       4.48453848        1
Hf       0.00000000       2.24226924       6.72680771        1
Ti       2.24226924       0.00000000       6.72680771        1
Ta       2.24226924       2.24226924       4.48453848        1
N        2.24226924       2.24226924       6.72680771        2
N        2.24226924       0.00000000       4.48453848        2
N        0.00000000       2.24226924       4.48453848        2
N        0.00000000       0.00000000       6.72680771        2
Ta       0.00000000       0.00000000       8.96907695        1
Ti       0.00000000       2.24226924      11.21134619        1
Ta       2.24226924       0.00000000      11.21134619        1
Zr       2.24226924       2.24226924       8.96907695        1
N        2.24226924       2.24226924      11.21134619        2
N        2.24226924       0.00000000       8.96907695        2
N        0.00000000       2.24226924       8.96907695        2
N        0.00000000       0.00000000      11.21134619        2
Hf       0.00000000       4.48453848       0.00000000        1
Nb       0.00000000       6.72680771       2.24226924        1
Zr       2.24226924       4.48453848       2.24226924        1
Zr       2.24226924       6.72680771       0.00000000        1
N        2.24226924       6.72680771       2.24226924        2
N        2.24226924       4.48453848       0.00000000        2
N        0.00000000       6.72680771       0.00000000        2
N        0.00000000       4.48453848       2.24226924        2
Zr       0.00000000       4.48453848       4.48453848        1
Zr       0.00000000       6.72680771       6.72680771        1
Nb       2.24226924       4.48453848       6.72680771        1
Ti       2.24226924       6.72680771       4.48453848        1
N        2.24226924       6.72680771       6.72680771        2
N        2.24226924       4.48453848       4.48453848        2
N        0.00000000       6.72680771       4.48453848        2
N        0.00000000       4.48453848       6.72680771        2
Ta       0.00000000       4.48453848       8.96907695        1
Ti       0.00000000       6.72680771      11.21134619        1
Nb       2.24226924       4.48453848      11.21134619        1
Ta       2.24226924       6.72680771       8.96907695        1
N        2.24226924       6.72680771      11.21134619        2
N        2.24226924       4.48453848       8.96907695        2
N        0.00000000       6.72680771       8.96907695        2
N        0.00000000       4.48453848      11.21134619        2
Ti       0.00000000       8.96907695       0.00000000        1
Zr       0.00000000      11.21134619       2.24226924        1
Ta       2.24226924       8.96907695       2.24226924        1
Nb       2.24226924      11.21134619       0.00000000        1
N        2.24226924      11.21134619       2.24226924        2
N        2.24226924       8.96907695       0.00000000        2
N        0.00000000      11.21134619       0.00000000        2
N        0.00000000       8.96907695       2.24226924        2
Ta       0.00000000       8.96907695       4.48453848        1
Hf       0.00000000      11.21134619       6.72680771        1
Ti       2.24226924       8.96907695       6.72680771        1
Ta       2.24226924      11.21134619       4.48453848        1
N        2.24226924      11.21134619       6.72680771        2
N        2.24226924       8.96907695       4.48453848        2
N        0.00000000      11.21134619       4.48453848        2
N        0.00000000       8.96907695       6.72680771        2
Hf       0.00000000       8.96907695       8.96907695        1
Hf       0.00000000      11.21134619      11.21134619        1
Ti       2.24226924       8.96907695      11.21134619        1
Nb       2.24226924      11.21134619       8.96907695        1
N        2.24226924      11.21134619      11.21134619        2
N        2.24226924       8.96907695       8.96907695        2
N        0.00000000      11.21134619       8.96907695        2
N        0.00000000       8.96907695      11.21134619        2
Hf       4.48453848       0.00000000       0.00000000        1
Nb       4.48453848       2.24226924       2.24226924        1
Ti       6.72680771       0.00000000       2.24226924        1
Nb       6.72680771       2.24226924       0.00000000        1
N        6.72680771       2.24226924       2.24226924        2
N        6.72680771       0.00000000       0.00000000        2
N        4.48453848       2.24226924       0.00000000        2
N        4.48453848       0.00000000       2.24226924        2
Nb       4.48453848       0.00000000       4.48453848        1
Zr       4.48453848       2.24226924       6.72680771        1
Ti       6.72680771       0.00000000       6.72680771        1
Hf       6.72680771       2.24226924       4.48453848        1
N        6.72680771       2.24226924       6.72680771        2
N        6.72680771       0.00000000       4.48453848        2
N        4.48453848       2.24226924       4.48453848        2
N        4.48453848       0.00000000       6.72680771        2
Hf       4.48453848       0.00000000       8.96907695        1
Zr       4.48453848       2.24226924      11.21134619        1
Zr       6.72680771       0.00000000      11.21134619        1
Hf       6.72680771       2.24226924       8.96907695        1
N        6.72680771       2.24226924      11.21134619        2
N        6.72680771       0.00000000       8.96907695        2
N        4.48453848       2.24226924       8.96907695        2
N        4.48453848       0.00000000      11.21134619        2
Ta       4.48453848       4.48453848       0.00000000        1
Nb       4.48453848       6.72680771       2.24226924        1
Ta       6.72680771       4.48453848       2.24226924        1
Ti       6.72680771       6.72680771       0.00000000        1
N        6.72680771       6.72680771       2.24226924        2
N        6.72680771       4.48453848       0.00000000        2
N        4.48453848       6.72680771       0.00000000        2
N        4.48453848       4.48453848       2.24226924        2
Hf       4.48453848       4.48453848       4.48453848        1
Nb       4.48453848       6.72680771       6.72680771        1
Zr       6.72680771       4.48453848       6.72680771        1
Nb       6.72680771       6.72680771       4.48453848        1
N        6.72680771       6.72680771       6.72680771        2
N        6.72680771       4.48453848       4.48453848        2
N        4.48453848       6.72680771       4.48453848        2
N        4.48453848       4.48453848       6.72680771        2
Nb       4.48453848       4.48453848       8.96907695        1
Hf       4.48453848       6.72680771      11.21134619        1
Hf       6.72680771       4.48453848      11.21134619        1
Ti       6.72680771       6.72680771       8.96907695        1
N        6.72680771       6.72680771      11.21134619        2
N        6.72680771       4.48453848       8.96907695        2
N        4.48453848       6.72680771       8.96907695        2
N        4.48453848       4.48453848      11.21134619        2
Zr       4.48453848       8.96907695       0.00000000        1
Ti       4.48453848      11.21134619       2.24226924        1
Ti       6.72680771       8.96907695       2.24226924        1
Zr       6.72680771      11.21134619       0.00000000        1
N        6.72680771      11.21134619       2.24226924        2
N        6.72680771       8.96907695       0.00000000        2
N        4.48453848      11.21134619       0.00000000        2
N        4.48453848       8.96907695       2.24226924        2
Hf       4.48453848       8.96907695       4.48453848        1
Nb       4.48453848      11.21134619       6.72680771        1
Ti       6.72680771       8.96907695       6.72680771        1
Zr       6.72680771      11.21134619       4.48453848        1
N        6.72680771      11.21134619       6.72680771        2
N        6.72680771       8.96907695       4.48453848        2
N        4.48453848      11.21134619       4.48453848        2
N        4.48453848       8.96907695       6.72680771        2
Zr       4.48453848       8.96907695       8.96907695        1
Ta       4.48453848      11.21134619      11.21134619        1
Zr       6.72680771       8.96907695      11.21134619        1
Ti       6.72680771      11.21134619       8.96907695        1
N        6.72680771      11.21134619      11.21134619        2
N        6.72680771       8.96907695       8.96907695        2
N        4.48453848      11.21134619       8.96907695        2
N        4.48453848       8.96907695      11.21134619        2
Hf       8.96907695       0.00000000       0.00000000        1
Hf       8.96907695       2.24226924       2.24226924        1
Ta      11.21134619       0.00000000       2.24226924        1
Ta      11.21134619       2.24226924       0.00000000        1
N       11.21134619       2.24226924       2.24226924        2
N       11.21134619       0.00000000       0.00000000        2
N        8.96907695       2.24226924       0.00000000        2
N        8.96907695       0.00000000       2.24226924        2
Hf       8.96907695       0.00000000       4.48453848        1
Ta       8.96907695       2.24226924       6.72680771        1
Ti      11.21134619       0.00000000       6.72680771        1
Ti      11.21134619       2.24226924       4.48453848        1
N       11.21134619       2.24226924       6.72680771        2
N       11.21134619       0.00000000       4.48453848        2
N        8.96907695       2.24226924       4.48453848        2
N        8.96907695       0.00000000       6.72680771        2
Ta       8.96907695       0.00000000       8.96907695        1
Ti       8.96907695       2.24226924      11.21134619        1
Zr      11.21134619       0.00000000      11.21134619        1
Hf      11.21134619       2.24226924       8.96907695        1
N       11.21134619       2.24226924      11.21134619        2
N       11.21134619       0.00000000       8.96907695        2
N        8.96907695       2.24226924       8.96907695        2
N        8.96907695       0.00000000      11.21134619        2
Nb       8.96907695       4.48453848       0.00000000        1
Hf       8.96907695       6.72680771       2.24226924        1
Nb      11.21134619       4.48453848       2.24226924        1
Hf      11.21134619       6.72680771       0.00000000        1
N       11.21134619       6.72680771       2.24226924        2
N       11.21134619       4.48453848       0.00000000        2
N        8.96907695       6.72680771       0.00000000        2
N        8.96907695       4.48453848       2.24226924        2
Ta       8.96907695       4.48453848       4.48453848        1
Hf       8.96907695       6.72680771       6.72680771        1
Ti      11.21134619       4.48453848       6.72680771        1
Hf      11.21134619       6.72680771       4.48453848        1
N       11.21134619       6.72680771       6.72680771        2
N       11.21134619       4.48453848       4.48453848        2
N        8.96907695       6.72680771       4.48453848        2
N        8.96907695       4.48453848       6.72680771        2
Ta       8.96907695       4.48453848       8.96907695        1
Nb       8.96907695       6.72680771      11.21134619        1
Ta      11.21134619       4.48453848      11.21134619        1
Nb      11.21134619       6.72680771       8.96907695        1
N       11.21134619       6.72680771      11.21134619        2
N       11.21134619       4.48453848       8.96907695        2
N        8.96907695       6.72680771       8.96907695        2
N        8.96907695       4.48453848      11.21134619        2
Ta       8.96907695       8.96907695       0.00000000        1
Nb       8.96907695      11.21134619       2.24226924        1
Zr      11.21134619       8.96907695       2.24226924        1
Nb      11.21134619      11.21134619       0.00000000        1
N       11.21134619      11.21134619       2.24226924        2
N       11.21134619       8.96907695       0.00000000        2
N        8.96907695      11.21134619       0.00000000        2
N        8.96907695       8.96907695       2.24226924        2
Ta       8.96907695       8.96907695       4.48453848        1
Ta       8.96907695      11.21134619       6.72680771        1
Ti      11.21134619       8.96907695       6.72680771        1
Zr      11.21134619      11.21134619       4.48453848        1
N       11.21134619      11.21134619       6.72680771        2
N       11.21134619       8.96907695       4.48453848        2
N        8.96907695      11.21134619       4.48453848        2
N        8.96907695       8.96907695       6.72680771        2
Zr       8.96907695       8.96907695       8.96907695        1
Hf       8.96907695      11.21134619      11.21134619        1
Nb      11.21134619       8.96907695      11.21134619        1
Ti      11.21134619      11.21134619       8.96907695        1
N       11.21134619      11.21134619      11.21134619        2
N       11.21134619       8.96907695       8.96907695        2
N        8.96907695      11.21134619       8.96907695        2
N        8.96907695       8.96907695      11.21134619        2
216
Lattice="13.453615425789224 0.0 0.0 0.0 13.453615425789224 0.0 0.0 0.0 13.453615425789224" Properties=species:S:1:pos:R:3:tags:I:1 sqs_abs_alpha=0.10610220947883287 energy=-2238.550087209933 mc_step=150 energy_method=uma rosenbluth_W_new=6.640898372768072 rosenbluth_W_old=5.48104075020846 pbc="T T T"
Ta       0.00000000       0.00000000       0.00000000        1
Nb       0.00000000       2.24226924       2.24226924        1
Zr       2.24226924       0.00000000       2.24226924        1
Nb       2.24226924       2.24226924       0.00000000        1
N        2.24226924       2.24226924       2.24226924        2
N        2.24226924       0.00000000       0.00000000        2
N        0.00000000       2.24226924       0.00000000        2
N        0.00000000       0.00000000       2.24226924        2
Ti       0.00000000       0.00000000       4.48453848        1
Hf       0.00000000       2.24226924       6.72680771        1
Nb       2.24226924       0.00000000       6.72680771        1
Ta       2.24226924       2.24226924       4.48453848        1
N        2.24226924       2.24226924       6.72680771        2
N        2.24226924       0.00000000       4.48453848        2
N        0.00000000       2.24226924       4.48453848        2
N        0.00000000       0.00000000       6.72680771        2
Ta       0.00000000       0.00000000       8.96907695        1
Nb       0.00000000       2.24226924      11.21134619        1
Ti       2.24226924       0.00000000      11.21134619        1
Zr       2.24226924       2.24226924       8.96907695        1
N        2.24226924       2.24226924      11.21134619        2
N        2.24226924       0.00000000       8.96907695        2
N        0.00000000       2.24226924       8.96907695        2
N        0.00000000       0.00000000      11.21134619        2
Hf       0.00000000       4.48453848       0.00000000        1
Ta       0.00000000       6.72680771       2.24226924        1
Zr       2.24226924       4.48453848       2.24226924        1
Nb       2.24226924       6.72680771       0.00000000        1
N        2.24226924       6.72680771       2.24226924        2
N        2.24226924       4.48453848       0.00000000        2
N        0.00000000       6.72680771       0.00000000        2
N        0.00000000       4.48453848       2.24226924        2
Zr       0.00000000       4.48453848       4.48453848        1
Zr       0.00000000       6.72680771       6.72680771        1
Nb       2.24226924       4.48453848       6.72680771        1
Ti       2.24226924       6.72680771       4.48453848        1
N        2.24226924       6.72680771       6.72680771        2
N        2.24226924       4.48453848       4.48453848        2
N        0.00000000       6.72680771       4.48453848        2
N        0.00000000       4.48453848       6.72680771        2
Ta       0.00000000       4.48453848       8.96907695        1
Ti       0.00000000       6.72680771      11.21134619        1
Nb       2.24226924       4.48453848      11.21134619        1
Zr       2.24226924       6.72680771       8.96907695        1
N        2.24226924       6.72680771      11.21134619        2
N        2.24226924       4.48453848       8.96907695        2
N        0.00000000       6.72680771       8.96907695        2
N        0.00000000       4.48453848      11.21134619        2
Ti       0.00000000       8.96907695       0.00000000        1
Zr       0.00000000      11.21134619       2.24226924        1
Ta       2.24226924       8.96907695       2.24226924        1
Nb       2.24226924      11.21134619       0.00000000        1
N        2.24226924      11.21134619       2.24226924        2
N        2.24226924       8.96907695       0.00000000        2
N        0.00000000      11.21134619       0.00000000        2
N        0.00000000       8.96907695       2.24226924        2
Ta       0.00000000       8.96907695       4.48453848        1
Zr       0.00000000      11.21134619       6.72680771        1
Ti       2.24226924       8.96907695       6.72680771        1
Hf       2.24226924      11.21134619       4.48453848        1
N        2.24226924      11.21134619       6.72680771        2
N        2.24226924       8.96907695       4.48453848        2
N        0.00000000      11.21134619       4.48453848        2
N        0.00000000       8.96907695       6.72680771        2
Zr       0.00000000       8.96907695       8.96907695        1
Hf       0.00000000      11.21134619      11.21134619        1
Nb       2.24226924       8.96907695      11.21134619        1
Ta       2.24226924      11.21134619       8.96907695        1
N        2.24226924      11.21134619      11.21134619        2
N        2.24226924       8.96907695       8.96907695        2
N        0.00000000      11.21134619       8.96907695        2
N        0.00000000       8.96907695      11.21134619        2
Hf       4.48453848       0.00000000       0.00000000        1
Nb       4.48453848       2.24226924       2.24226924        1
Ti       6.72680771       0.00000000       2.24226924        1
Nb       6.72680771       2.24226924       0.00000000        1
N        6.72680771       2.24226924       2.24226924        2
N        6.72680771       0.00000000       0.00000000        2
N        4.48453848       2.24226924       0.00000000        2
N        4.48453848       0.00000000       2.24226924        2
Nb       4.48453848       0.00000000       4.48453848        1
Zr       4.48453848       2.24226924       6.72680771        1
Zr       6.72680771       0.00000000       6.72680771        1
Hf       6.72680771       2.24226924       4.48453848        1
N        6.72680771       2.24226924       6.72680771        2
N        6.72680771       0.00000000       4.48453848        2
N        4.48453848       2.24226924       4.48453848        2
N        4.48453848       0.00000000       6.72680771        2
Hf       4.48453848       0.00000000       8.96907695        1
Nb       4.48453848       2.24226924      11.21134619        1
Ta       6.72680771       0.00000000      11.21134619        1
Hf       6.72680771       2.24226924       8.96907695        1
N        6.72680771       2.24226924      11.21134619        2
N        6.72680771       0.00000000       8.96907695        2
N        4.48453848       2.24226924       8.96907695        2
N        4.48453848       0.00000000      11.21134619        2
Ta       4.48453848       4.48453848       0.00000000        1
Ti       4.48453848       6.72680771       2.24226924        1
Ta       6.72680771       4.48453848       2.24226924        1
Hf       6.72680771       6.72680771       0.00000000        1
N        6.72680771       6.72680771       2.24226924        2
N        6.72680771       4.48453848       0.00000000        2
N        4.48453848       6.72680771       0.00000000        2
N        4.48453848       4.48453848       2.24226924        2
Ta       4.48453848       4.48453848       4.48453848        1
Ta       4.48453848       6.72680771       6.72680771        1
Zr       6.72680771       4.48453848       6.72680771        1
Ti       6.72680771       6.72680771       4.48453848        1
N        6.72680771       6.72680771       6.72680771        2
N        6.72680771       4.48453848       4.48453848        2
N        4.48453848       6.72680771       4.48453848        2
N        4.48453848       4.48453848       6.72680771        2
Ti       4.48453848       4.48453848       8.96907695        1
Ti       4.48453848       6.72680771      11.21134619        1
Hf       6.72680771       4.48453848      11.21134619        1
Ta       6.72680771       6.72680771       8.96907695        1
N        6.72680771       6.72680771      11.21134619        2
N        6.72680771       4.48453848       8.96907695        2
N        4.48453848       6.72680771       8.96907695        2
N        4.48453848       4.48453848      11.21134619        2
Nb       4.48453848       8.96907695       0.00000000        1
Ti       4.48453848      11.21134619       2.24226924        1
Hf       6.72680771       8.96907695       2.24226924        1
Zr       6.72680771      11.21134619       0.00000000        1
N        6.72680771      11.21134619       2.24226924        2
N        6.72680771       8.96907695       0.00000000        2
N        4.48453848      11.21134619       0.00000000        2
N        4.48453848       8.96907695       2.24226924        2
Hf       4.48453848       8.96907695       4.48453848        1
Zr       4.48453848      11.21134619       6.72680771        1
Ti       6.72680771       8.96907695       6.72680771        1
Nb       6.72680771      11.21134619       4.48453848        1
N        6.72680771      11.21134619       6.72680771        2
N        6.72680771       8.96907695       4.48453848        2
N        4.48453848      11.21134619       4.48453848        2
N        4.48453848       8.96907695       6.72680771        2
Zr       4.48453848       8.96907695       8.96907695        1
Ta       4.48453848      11.21134619      11.21134619        1
Ti       6.72680771       8.96907695      11.21134619        1
Ti       6.72680771      11.21134619       8.96907695        1
N        6.72680771      11.21134619      11.21134619        2
N        6.72680771       8.96907695       8.96907695        2
N        4.48453848      11.21134619       8.96907695        2
N        4.48453848       8.96907695      11.21134619        2
Zr       8.96907695       0.00000000       0.00000000        1
Ti       8.96907695       2.24226924       2.24226924        1
Ta      11.21134619       0.00000000       2.24226924        1
Zr      11.21134619       2.24226924       0.00000000        1
N       11.21134619       2.24226924       2.24226924        2
N       11.21134619       0.00000000       0.00000000        2
N        8.96907695       2.24226924       0.00000000        2
N        8.96907695       0.00000000       2.24226924        2
Hf       8.96907695       0.00000000       4.48453848        1
Ta       8.96907695       2.24226924       6.72680771        1
Ti      11.21134619       0.00000000       6.72680771        1
Ti      11.21134619       2.24226924       4.48453848        1
N       11.21134619       2.24226924       6.72680771        2
N       11.21134619       0.00000000       4.48453848        2
N        8.96907695       2.24226924       4.48453848        2
N        8.96907695       0.00000000       6.72680771        2
Zr       8.96907695       0.00000000       8.96907695        1
Ti       8.96907695       2.24226924      11.21134619        1
Hf      11.21134619       0.00000000      11.21134619        1
Hf      11.21134619       2.24226924       8.96907695        1
N       11.21134619       2.24226924      11.21134619        2
N       11.21134619       0.00000000       8.96907695        2
N        8.96907695       2.24226924       8.96907695        2
N        8.96907695       0.00000000      11.21134619        2
Nb       8.96907695       4.48453848       0.00000000        1
Hf       8.96907695       6.72680771       2.24226924        1
Nb      11.21134619       4.48453848       2.24226924        1
Hf      11.21134619       6.72680771       0.00000000        1
N       11.21134619       6.72680771       2.24226924        2
N       11.21134619       4.48453848       0.00000000        2
N        8.96907695       6.72680771       0.00000000        2
N        8.96907695       4.48453848       2.24226924        2
Zr       8.96907695       4.48453848       4.48453848        1
Hf       8.96907695       6.72680771       6.72680771        1
Ti      11.21134619       4.48453848       6.72680771        1
Nb      11.21134619       6.72680771       4.48453848        1
N       11.21134619       6.72680771       6.72680771        2
N       11.21134619       4.48453848       4.48453848        2
N        8.96907695       6.72680771       4.48453848        2
N        8.96907695       4.48453848       6.72680771        2
Ta       8.96907695       4.48453848       8.96907695        1
Ta       8.96907695       6.72680771      11.21134619        1
Hf      11.21134619       4.48453848      11.21134619        1
Nb      11.21134619       6.72680771       8.96907695        1
N       11.21134619       6.72680771      11.21134619        2
N       11.21134619       4.48453848       8.96907695        2
N        8.96907695       6.72680771       8.96907695        2
N        8.96907695       4.48453848      11.21134619        2
Ta       8.96907695       8.96907695       0.00000000        1
Ti       8.96907695      11.21134619       2.24226924        1
Zr      11.21134619       8.96907695       2.24226924        1
Nb      11.21134619      11.21134619       0.00000000        1
N       11.21134619      11.21134619       2.24226924        2
N       11.21134619       8.96907695       0.00000000        2
N        8.96907695      11.21134619       0.00000000        2
N        8.96907695       8.96907695       2.24226924        2
Hf       8.96907695       8.96907695       4.48453848        1
Hf       8.96907695      11.21134619       6.72680771        1
Ti      11.21134619       8.96907695       6.72680771        1
Zr      11.21134619      11.21134619       4.48453848        1
N       11.21134619      11.21134619       6.72680771        2
N       11.21134619       8.96907695       4.48453848        2
N        8.96907695      11.21134619       4.48453848        2
N        8.96907695       8.96907695       6.72680771        2
Ta       8.96907695       8.96907695       8.96907695        1
Hf       8.96907695      11.21134619      11.21134619        1
Zr      11.21134619       8.96907695      11.21134619        1
Nb      11.21134619      11.21134619       8.96907695        1
N       11.21134619      11.21134619      11.21134619        2
N       11.21134619       8.96907695       8.96907695        2
N        8.96907695      11.21134619       8.96907695        2
N        8.96907695       8.96907695      11.21134619        2
216
Lattice="13.453615425789224 0.0 0.0 0.0 13.453615425789224 0.0 0.0 0.0 13.453615425789224" Properties=species:S:1:pos:R:3:tags:I:1 sqs_abs_alpha=0.13117895091921064 energy=-2238.482426489673 mc_step=200 energy_method=uma rosenbluth_W_new=6.388115195032603 rosenbluth_W_old=3.2787608892553193 pbc="T T T"
Ta       0.00000000       0.00000000       0.00000000        1
Ta       0.00000000       2.24226924       2.24226924        1
Zr       2.24226924       0.00000000       2.24226924        1
Nb       2.24226924       2.24226924       0.00000000        1
N        2.24226924       2.24226924       2.24226924        2
N        2.24226924       0.00000000       0.00000000        2
N        0.00000000       2.24226924       0.00000000        2
N        0.00000000       0.00000000       2.24226924        2
Ti       0.00000000       0.00000000       4.48453848        1
Nb       0.00000000       2.24226924       6.72680771        1
Ti       2.24226924       0.00000000       6.72680771        1
Ta       2.24226924       2.24226924       4.48453848        1
N        2.24226924       2.24226924       6.72680771        2
N        2.24226924       0.00000000       4.48453848        2
N        0.00000000       2.24226924       4.48453848        2
N        0.00000000       0.00000000       6.72680771        2
Nb       0.00000000       0.00000000       8.96907695        1
Zr       0.00000000       2.24226924      11.21134619        1
Ti       2.24226924       0.00000000      11.21134619        1
Zr       2.24226924       2.24226924       8.96907695        1
N        2.24226924       2.24226924      11.21134619        2
N        2.24226924       0.00000000       8.96907695        2
N        0.00000000       2.24226924       8.96907695        2
N        0.00000000       0.00000000      11.21134619        2
Zr       0.00000000       4.48453848       0.00000000        1
Ta       0.00000000       6.72680771       2.24226924        1
Zr       2.24226924       4.48453848       2.24226924        1
Ta       2.24226924       6.72680771       0.00000000        1
N        2.24226924       6.72680771       2.24226924        2
N        2.24226924       4.48453848       0.00000000        2
N        0.00000000       6.72680771       0.00000000        2
N        0.00000000       4.48453848       2.24226924        2
Nb       0.00000000       4.48453848       4.48453848        1
Ta       0.00000000       6.72680771       6.72680771        1
Hf       2.24226924       4.48453848       6.72680771        1
Zr       2.24226924       6.72680771       4.48453848        1
N        2.24226924       6.72680771       6.72680771        2
N        2.24226924       4.48453848       4.48453848        2
N        0.00000000       6.72680771       4.48453848        2
N        0.00000000       4.48453848       6.72680771        2
Nb       0.00000000       4.48453848       8.96907695        1
Ti       0.00000000       6.72680771      11.21134619        1
Nb       2.24226924       4.48453848      11.21134619        1
Nb       2.24226924       6.72680771       8.96907695        1
N        2.24226924       6.72680771      11.21134619        2
N        2.24226924       4.48453848       8.96907695        2
N        0.00000000       6.72680771       8.96907695        2
N        0.00000000       4.48453848      11.21134619        2
Ti       0.00000000       8.96907695       0.00000000        1
Zr       0.00000000      11.21134619       2.24226924        1
Nb       2.24226924       8.96907695       2.24226924        1
Hf       2.24226924      11.21134619       0.00000000        1
N        2.24226924      11.21134619       2.24226924        2
N        2.24226924       8.96907695       0.00000000        2
N        0.00000000      11.21134619       0.00000000        2
N        0.00000000       8.96907695       2.24226924        2
Ta       0.00000000       8.96907695       4.48453848        1
Hf       0.00000000      11.21134619       6.72680771        1
Ti       2.24226924       8.96907695       6.72680771        1
Hf       2.24226924      11.21134619       4.48453848        1
N        2.24226924      11.21134619       6.72680771        2
N        2.24226924       8.96907695       4.48453848        2
N        0.00000000      11.21134619       4.48453848        2
N        0.00000000       8.96907695       6.72680771        2
Zr       0.00000000       8.96907695       8.96907695        1
Zr       0.00000000      11.21134619      11.21134619        1
Nb       2.24226924       8.96907695      11.21134619        1
Zr       2.24226924      11.21134619       8.96907695        1
N        2.24226924      11.21134619      11.21134619        2
N        2.24226924       8.96907695       8.96907695        2
N        0.00000000      11.21134619       8.96907695        2
N        0.00000000       8.96907695      11.21134619        2
Hf       4.48453848       0.00000000       0.00000000        1
Hf       4.48453848       2.24226924       2.24226924        1
Ti       6.72680771       0.00000000       2.24226924        1
Hf       6.72680771       2.24226924       0.00000000        1
N        6.72680771       2.24226924       2.24226924        2
N        6.72680771       0.00000000       0.00000000        2
N        4.48453848       2.24226924       0.00000000        2
N        4.48453848       0.00000000       2.24226924        2
Nb       4.48453848       0.00000000       4.48453848        1
Ta       4.48453848       2.24226924       6.72680771        1
Nb       6.72680771       0.00000000       6.72680771        1
Hf       6.72680771       2.24226924       4.48453848        1
N        6.72680771       2.24226924       6.72680771        2
N        6.72680771       0.00000000       4.48453848        2
N        4.48453848       2.24226924       4.48453848        2
N        4.48453848       0.00000000       6.72680771        2
Hf       4.48453848       0.00000000       8.96907695        1
Nb       4.48453848       2.24226924      11.21134619        1
Nb       6.72680771       0.00000000      11.21134619        1
Hf       6.72680771       2.24226924       8.96907695        1
N        6.72680771       2.24226924      11.21134619        2
N        6.72680771       0.00000000       8.96907695        2
N        4.48453848       2.24226924       8.96907695        2
N        4.48453848       0.00000000      11.21134619        2
Hf       4.48453848       4.48453848       0.00000000        1
Ti       4.48453848       6.72680771       2.24226924        1
Ta       6.72680771       4.48453848       2.24226924        1
Zr       6.72680771       6.72680771       0.00000000        1
N        6.72680771       6.72680771       2.24226924        2
N        6.72680771       4.48453848       0.00000000        2
N        4.48453848       6.72680771       0.00000000        2
N        4.48453848       4.48453848       2.24226924        2
Ta       4.48453848       4.48453848       4.48453848        1
Ta       4.48453848       6.72680771       6.72680771        1
Ti       6.72680771       4.48453848       6.72680771        1
Ti       6.72680771       6.72680771       4.48453848        1
N        6.72680771       6.72680771       6.72680771        2
N        6.72680771       4.48453848       4.48453848        2
N        4.48453848       6.72680771       4.48453848        2
N        4.48453848       4.48453848       6.72680771        2
Ti       4.48453848       4.48453848       8.96907695        1
Hf       4.48453848       6.72680771      11.21134619        1
Nb       6.72680771       4.48453848      11.21134619        1
Zr       6.72680771       6.72680771       8.96907695        1
N        6.72680771       6.72680771      11.21134619        2
N        6.72680771       4.48453848       8.96907695        2
N        4.48453848       6.72680771       8.96907695        2
N        4.48453848       4.48453848      11.21134619        2
Nb       4.48453848       8.96907695       0.00000000        1
Ti       4.48453848      11.21134619       2.24226924        1
Hf       6.72680771       8.96907695       2.24226924        1
Zr       6.72680771      11.21134619       0.00000000        1
N        6.72680771      11.21134619       2.24226924        2
N        6.72680771       8.96907695       0.00000000        2
N        4.48453848      11.21134619       0.00000000        2
N        4.48453848       8.96907695       2.24226924        2
Hf       4.48453848       8.96907695       4.48453848        1
Zr       4.48453848      11.21134619       6.72680771        1
Ti       6.72680771       8.96907695       6.72680771        1
Ta       6.72680771      11.21134619       4.48453848        1
N        6.72680771      11.21134619       6.72680771        2
N        6.72680771       8.96907695       4.48453848        2
N        4.48453848      11.21134619       4.48453848        2
N        4.48453848       8.96907695       6.72680771        2
Ti       4.48453848       8.96907695       8.96907695        1
Ta       4.48453848      11.21134619      11.21134619        1
Ti       6.72680771       8.96907695      11.21134619        1
Hf       6.72680771      11.21134619       8.96907695        1
N        6.72680771      11.21134619      11.21134619        2
N        6.72680771       8.96907695       8.96907695        2
N        4.48453848      11.21134619       8.96907695        2
N        4.48453848       8.96907695      11.21134619        2
Zr       8.96907695       0.00000000       0.00000000        1
Ti       8.96907695       2.24226924       2.24226924        1
Ta      11.21134619       0.00000000       2.24226924        1
Zr      11.21134619       2.24226924       0.00000000        1
N       11.21134619       2.24226924       2.24226924        2
N       11.21134619       0.00000000       0.00000000        2
N        8.96907695       2.24226924       0.00000000        2
N        8.96907695       0.00000000       2.24226924        2
Hf       8.96907695       0.00000000       4.48453848        1
Nb       8.96907695       2.24226924       6.72680771        1
Ti      11.21134619       0.00000000       6.72680771        1
Zr      11.21134619       2.24226924       4.48453848        1
N       11.21134619       2.24226924       6.72680771        2
N       11.21134619       0.00000000       4.48453848        2
N        8.96907695       2.24226924       4.48453848        2
N        8.96907695       0.00000000       6.72680771        2
Ta       8.96907695       0.00000000       8.96907695        1
Ti       8.96907695       2.24226924      11.21134619        1
Hf      11.21134619       0.00000000      11.21134619        1
Hf      11.21134619       2.24226924       8.96907695        1
N       11.21134619       2.24226924      11.21134619        2
N       11.21134619       0.00000000       8.96907695        2
N        8.96907695       2.24226924       8.96907695        2
N        8.96907695       0.00000000      11.21134619        2
Ta       8.96907695       4.48453848       0.00000000        1
Nb       8.96907695       6.72680771       2.24226924        1
Zr      11.21134619       4.48453848       2.24226924        1
Ti      11.21134619       6.72680771       0.00000000        1
N       11.21134619       6.72680771       2.24226924        2
N       11.21134619       4.48453848       0.00000000        2
N        8.96907695       6.72680771       0.00000000        2
N        8.96907695       4.48453848       2.24226924        2
Zr       8.96907695       4.48453848       4.48453848        1
Ti       8.96907695       6.72680771       6.72680771        1
Nb      11.21134619       4.48453848       6.72680771        1
Ti      11.21134619       6.72680771       4.48453848        1
N       11.21134619       6.72680771       6.72680771        2
N       11.21134619       4.48453848       4.48453848        2
N        8.96907695       6.72680771       4.48453848        2
N        8.96907695       4.48453848       6.72680771        2
Ta       8.96907695       4.48453848       8.96907695        1
Ta       8.96907695       6.72680771      11.21134619        1
Hf      11.21134619       4.48453848      11.21134619        1
Hf      11.21134619       6.72680771       8.96907695        1
N       11.21134619       6.72680771      11.21134619        2
N       11.21134619       4.48453848       8.96907695        2
N        8.96907695       6.72680771       8.96907695        2
N        8.96907695       4.48453848      11.21134619        2
Zr       8.96907695       8.96907695       0.00000000        1
Nb       8.96907695      11.21134619       2.24226924        1
Zr      11.21134619       8.96907695       2.24226924        1
Nb      11.21134619      11.21134619       0.00000000        1
N       11.21134619      11.21134619       2.24226924        2
N       11.21134619       8.96907695       0.00000000        2
N        8.96907695      11.21134619       0.00000000        2
N        8.96907695       8.96907695       2.24226924        2
Ta       8.96907695       8.96907695       4.48453848        1
Hf       8.96907695      11.21134619       6.72680771        1
Ti      11.21134619       8.96907695       6.72680771        1
Nb      11.21134619      11.21134619       4.48453848        1
N       11.21134619      11.21134619       6.72680771        2
N       11.21134619       8.96907695       4.48453848        2
N        8.96907695      11.21134619       4.48453848        2
N        8.96907695       8.96907695       6.72680771        2
Hf       8.96907695       8.96907695       8.96907695        1
Ta       8.96907695      11.21134619      11.21134619        1
Zr      11.21134619       8.96907695      11.21134619        1
Ta      11.21134619      11.21134619       8.96907695        1
N       11.21134619      11.21134619      11.21134619        2
N       11.21134619       8.96907695       8.96907695        2
N        8.96907695      11.21134619       8.96907695        2
N        8.96907695       8.96907695      11.21134619        2
216
Lattice="13.453615425789224 0.0 0.0 0.0 13.453615425789224 0.0 0.0 0.0 13.453615425789224" Properties=species:S:1:pos:R:3:tags:I:1 sqs_abs_alpha=0.11514251981784449 energy=-2238.138672634459 mc_step=250 energy_method=uma rosenbluth_W_new=4.901963627003756 rosenbluth_W_old=2.7491149340096954 pbc="T T T"
Ta       0.00000000       0.00000000       0.00000000        1
Ti       0.00000000       2.24226924       2.24226924        1
Nb       2.24226924       0.00000000       2.24226924        1
Nb       2.24226924       2.24226924       0.00000000        1
N        2.24226924       2.24226924       2.24226924        2
N        2.24226924       0.00000000       0.00000000        2
N        0.00000000       2.24226924       0.00000000        2
N        0.00000000       0.00000000       2.24226924        2
Ti       0.00000000       0.00000000       4.48453848        1
Nb       0.00000000       2.24226924       6.72680771        1
Ta       2.24226924       0.00000000       6.72680771        1
Ta       2.24226924       2.24226924       4.48453848        1
N        2.24226924       2.24226924       6.72680771        2
N        2.24226924       0.00000000       4.48453848        2
N        0.00000000       2.24226924       4.48453848        2
N        0.00000000       0.00000000       6.72680771        2
Zr       0.00000000       0.00000000       8.96907695        1
Zr       0.00000000       2.24226924      11.21134619        1
Ti       2.24226924       0.00000000      11.21134619        1
Nb       2.24226924       2.24226924       8.96907695        1
N        2.24226924       2.24226924      11.21134619        2
N        2.24226924       0.00000000       8.96907695        2
N        0.00000000       2.24226924       8.96907695        2
N        0.00000000       0.00000000      11.21134619        2
Zr       0.00000000       4.48453848       0.00000000        1
Zr       0.00000000       6.72680771       2.24226924        1
Nb       2.24226924       4.48453848       2.24226924        1
Ta       2.24226924       6.72680771       0.00000000        1
N        2.24226924       6.72680771       2.24226924        2
N        2.24226924       4.48453848       0.00000000        2
N        0.00000000       6.72680771       0.00000000        2
N        0.00000000       4.48453848       2.24226924        2
Nb       0.00000000       4.48453848       4.48453848        1
Ta       0.00000000       6.72680771       6.72680771        1
Hf       2.24226924       4.48453848       6.72680771        1
Hf       2.24226924       6.72680771       4.48453848        1
N        2.24226924       6.72680771       6.72680771        2
N        2.24226924       4.48453848       4.48453848        2
N        0.00000000       6.72680771       4.48453848        2
N        0.00000000       4.48453848       6.72680771        2
Nb       0.00000000       4.48453848       8.96907695        1
Nb       0.00000000       6.72680771      11.21134619        1
Ta       2.24226924       4.48453848      11.21134619        1
Nb       2.24226924       6.72680771       8.96907695        1
N        2.24226924       6.72680771      11.21134619        2
N        2.24226924       4.48453848       8.96907695        2
N        0.00000000       6.72680771       8.96907695        2
N        0.00000000       4.48453848      11.21134619        2
Ti       0.00000000       8.96907695       0.00000000        1
Zr       0.00000000      11.21134619       2.24226924        1
Nb       2.24226924       8.96907695       2.24226924        1
Hf       2.24226924      11.21134619       0.00000000        1
N        2.24226924      11.21134619       2.24226924        2
N        2.24226924       8.96907695       0.00000000        2
N        0.00000000      11.21134619       0.00000000        2
N        0.00000000       8.96907695       2.24226924        2
Ta       0.00000000       8.96907695       4.48453848        1
Hf       0.00000000      11.21134619       6.72680771        1
Ti       2.24226924       8.96907695       6.72680771        1
Zr       2.24226924      11.21134619       4.48453848        1
N        2.24226924      11.21134619       6.72680771        2
N        2.24226924       8.96907695       4.48453848        2
N        0.00000000      11.21134619       4.48453848        2
N        0.00000000       8.96907695       6.72680771        2
Nb       0.00000000       8.96907695       8.96907695        1
Ta       0.00000000      11.21134619      11.21134619        1
Zr       2.24226924       8.96907695      11.21134619        1
Hf       2.24226924      11.21134619       8.96907695        1
N        2.24226924      11.21134619      11.21134619        2
N        2.24226924       8.96907695       8.96907695        2
N        0.00000000      11.21134619       8.96907695        2
N        0.00000000       8.96907695      11.21134619        2
Zr       4.48453848       0.00000000       0.00000000        1
Ti       4.48453848       2.24226924       2.24226924        1
Hf       6.72680771       0.00000000       2.24226924        1
Hf       6.72680771       2.24226924       0.00000000        1
N        6.72680771       2.24226924       2.24226924        2
N        6.72680771       0.00000000       0.00000000        2
N        4.48453848       2.24226924       0.00000000        2
N        4.48453848       0.00000000       2.24226924        2
Nb       4.48453848       0.00000000       4.48453848        1
Ta       4.48453848       2.24226924       6.72680771        1
Ti       6.72680771       0.00000000       6.72680771        1
Ta       6.72680771       2.24226924       4.48453848        1
N        6.72680771       2.24226924       6.72680771        2
N        6.72680771       0.00000000       4.48453848        2
N        4.48453848       2.24226924       4.48453848        2
N        4.48453848       0.00000000       6.72680771        2
Hf       4.48453848       0.00000000       8.96907695        1
Zr       4.48453848       2.24226924      11.21134619        1
Zr       6.72680771       0.00000000      11.21134619        1
Zr       6.72680771       2.24226924       8.96907695        1
N        6.72680771       2.24226924      11.21134619        2
N        6.72680771       0.00000000       8.96907695        2
N        4.48453848       2.24226924       8.96907695        2
N        4.48453848       0.00000000      11.21134619        2
Hf       4.48453848       4.48453848       0.00000000        1
Ti       4.48453848       6.72680771       2.24226924        1
Zr       6.72680771       4.48453848       2.24226924        1
Ta       6.72680771       6.72680771       0.00000000        1
N        6.72680771       6.72680771       2.24226924        2
N        6.72680771       4.48453848       0.00000000        2
N        4.48453848       6.72680771       0.00000000        2
N        4.48453848       4.48453848       2.24226924        2
Nb       4.48453848       4.48453848       4.48453848        1
Nb       4.48453848       6.72680771       6.72680771        1
Ti       6.72680771       4.48453848       6.72680771        1
Hf       6.72680771       6.72680771       4.48453848        1
N        6.72680771       6.72680771       6.72680771        2
N        6.72680771       4.48453848       4.48453848        2
N        4.48453848       6.72680771       4.48453848        2
N        4.48453848       4.48453848       6.72680771        2
Ta       4.48453848       4.48453848       8.96907695        1
Zr       4.48453848       6.72680771      11.21134619        1
Nb       6.72680771       4.48453848      11.21134619        1
Hf       6.72680771       6.72680771       8.96907695        1
N        6.72680771       6.72680771      11.21134619        2
N        6.72680771       4.48453848       8.96907695        2
N        4.48453848       6.72680771       8.96907695        2
N        4.48453848       4.48453848      11.21134619        2
Zr       4.48453848       8.96907695       0.00000000        1
Ti       4.48453848      11.21134619       2.24226924        1
Hf       6.72680771       8.96907695       2.24226924        1
Ta       6.72680771      11.21134619       0.00000000        1
N        6.72680771      11.21134619       2.24226924        2
N        6.72680771       8.96907695       0.00000000        2
N        4.48453848      11.21134619       0.00000000        2
N        4.48453848       8.96907695       2.24226924        2
Hf       4.48453848       8.96907695       4.48453848        1
Hf       4.48453848      11.21134619       6.72680771        1
Ti       6.72680771       8.96907695       6.72680771        1
Nb       6.72680771      11.21134619       4.48453848        1
N        6.72680771      11.21134619       6.72680771        2
N        6.72680771       8.96907695       4.48453848        2
N        4.48453848      11.21134619       4.48453848        2
N        4.48453848       8.96907695       6.72680771        2
Ti       4.48453848       8.96907695       8.96907695        1
Ta       4.48453848      11.21134619      11.21134619        1
Ti       6.72680771       8.96907695      11.21134619        1
Hf       6.72680771      11.21134619       8.96907695        1
N        6.72680771      11.21134619      11.21134619        2
N        6.72680771       8.96907695       8.96907695        2
N        4.48453848      11.21134619       8.96907695        2
N        4.48453848       8.96907695      11.21134619        2
Hf       8.96907695       0.00000000       0.00000000        1
Ti       8.96907695       2.24226924       2.24226924        1
Zr      11.21134619       0.00000000       2.24226924        1
Zr      11.21134619       2.24226924       0.00000000        1
N       11.21134619       2.24226924       2.24226924        2
N       11.21134619       0.00000000       0.00000000        2
N        8.96907695       2.24226924       0.00000000        2
N        8.96907695       0.00000000       2.24226924        2
Hf       8.96907695       0.00000000       4.48453848        1
Ti       8.96907695       2.24226924       6.72680771        1
Ti      11.21134619       0.00000000       6.72680771        1
Hf      11.21134619       2.24226924       4.48453848        1
N       11.21134619       2.24226924       6.72680771        2
N       11.21134619       0.00000000       4.48453848        2
N        8.96907695       2.24226924       4.48453848        2
N        8.96907695       0.00000000       6.72680771        2
Hf       8.96907695       0.00000000       8.96907695        1
Ti       8.96907695       2.24226924      11.21134619        1
Nb      11.21134619       0.00000000      11.21134619        1
Ta      11.21134619       2.24226924       8.96907695        1
N       11.21134619       2.24226924      11.21134619        2
N       11.21134619       0.00000000       8.96907695        2
N        8.96907695       2.24226924       8.96907695        2
N        8.96907695       0.00000000      11.21134619        2
Nb       8.96907695       4.48453848       0.00000000        1
Nb       8.96907695       6.72680771       2.24226924        1
Hf      11.21134619       4.48453848       2.24226924        1
Ti      11.21134619       6.72680771       0.00000000        1
N       11.21134619       6.72680771       2.24226924        2
N       11.21134619       4.48453848       0.00000000        2
N        8.96907695       6.72680771       0.00000000        2
N        8.96907695       4.48453848       2.24226924        2
Zr       8.96907695       4.48453848       4.48453848        1
Ti       8.96907695       6.72680771       6.72680771        1
Ta      11.21134619       4.48453848       6.72680771        1
Ta      11.21134619       6.72680771       4.48453848        1
N       11.21134619       6.72680771       6.72680771        2
N       11.21134619       4.48453848       4.48453848        2
N        8.96907695       6.72680771       4.48453848        2
N        8.96907695       4.48453848       6.72680771        2
Zr       8.96907695       4.48453848       8.96907695        1
Ta       8.96907695       6.72680771      11.21134619        1
Hf      11.21134619       4.48453848      11.21134619        1
Zr      11.21134619       6.72680771       8.96907695        1
N       11.21134619       6.72680771      11.21134619        2
N       11.21134619       4.48453848       8.96907695        2
N        8.96907695       6.72680771       8.96907695        2
N        8.96907695       4.48453848      11.21134619        2
Zr       8.96907695       8.96907695       0.00000000        1
Zr       8.96907695      11.21134619       2.24226924        1
Ti      11.21134619       8.96907695       2.24226924        1
Nb      11.21134619      11.21134619       0.00000000        1
N       11.21134619      11.21134619       2.24226924        2
N       11.21134619       8.96907695       0.00000000        2
N        8.96907695      11.21134619       0.00000000        2
N        8.96907695       8.96907695       2.24226924        2
Ta       8.96907695       8.96907695       4.48453848        1
Hf       8.96907695      11.21134619       6.72680771        1
Ti      11.21134619       8.96907695       6.72680771        1
Zr      11.21134619      11.21134619       4.48453848        1
N       11.21134619      11.21134619       6.72680771        2
N       11.21134619       8.96907695       4.48453848        2
N        8.96907695      11.21134619       4.48453848        2
N        8.96907695       8.96907695       6.72680771        2
Ta       8.96907695       8.96907695       8.96907695        1
Nb       8.96907695      11.21134619      11.21134619        1
Ti      11.21134619       8.96907695      11.21134619        1
Ta      11.21134619      11.21134619       8.96907695        1
N       11.21134619      11.21134619      11.21134619        2
N       11.21134619       8.96907695       8.96907695        2
N        8.96907695      11.21134619       8.96907695        2
N        8.96907695       8.96907695      11.21134619        2
216
Lattice="13.453615425789224 0.0 0.0 0.0 13.453615425789224 0.0 0.0 0.0 13.453615425789224" Properties=species:S:1:pos:R:3:tags:I:1 sqs_abs_alpha=0.10485748018215554 energy=-2238.281265797969 mc_step=300 energy_method=uma rosenbluth_W_new=2.7700180159106402 rosenbluth_W_old=4.247342023796608 pbc="T T T"
Ta       0.00000000       0.00000000       0.00000000        1
Ti       0.00000000       2.24226924       2.24226924        1
Zr       2.24226924       0.00000000       2.24226924        1
Nb       2.24226924       2.24226924       0.00000000        1
N        2.24226924       2.24226924       2.24226924        2
N        2.24226924       0.00000000       0.00000000        2
N        0.00000000       2.24226924       0.00000000        2
N        0.00000000       0.00000000       2.24226924        2
Ti       0.00000000       0.00000000       4.48453848        1
Hf       0.00000000       2.24226924       6.72680771        1
Ti       2.24226924       0.00000000       6.72680771        1
Ta       2.24226924       2.24226924       4.48453848        1
N        2.24226924       2.24226924       6.72680771        2
N        2.24226924       0.00000000       4.48453848        2
N        0.00000000       2.24226924       4.48453848        2
N        0.00000000       0.00000000       6.72680771        2
Zr       0.00000000       0.00000000       8.96907695        1
Hf       0.00000000       2.24226924      11.21134619        1
Hf       2.24226924       0.00000000      11.21134619        1
Nb       2.24226924       2.24226924       8.96907695        1
N        2.24226924       2.24226924      11.21134619        2
N        2.24226924       0.00000000       8.96907695        2
N        0.00000000       2.24226924       8.96907695        2
N        0.00000000       0.00000000      11.21134619        2
Hf       0.00000000       4.48453848       0.00000000        1
Zr       0.00000000       6.72680771       2.24226924        1
Nb       2.24226924       4.48453848       2.24226924        1
Ta       2.24226924       6.72680771       0.00000000        1
N        2.24226924       6.72680771       2.24226924        2
N        2.24226924       4.48453848       0.00000000        2
N        0.00000000       6.72680771       0.00000000        2
N        0.00000000       4.48453848       2.24226924        2
Nb       0.00000000       4.48453848       4.48453848        1
Ti       0.00000000       6.72680771       6.72680771        1
Hf       2.24226924       4.48453848       6.72680771        1
Zr       2.24226924       6.72680771       4.48453848        1
N        2.24226924       6.72680771       6.72680771        2
N        2.24226924       4.48453848       4.48453848        2
N        0.00000000       6.72680771       4.48453848        2
N        0.00000000       4.48453848       6.72680771        2
Nb       0.00000000       4.48453848       8.96907695        1
Zr       0.00000000       6.72680771      11.21134619        1
Nb       2.24226924       4.48453848      11.21134619        1
Hf       2.24226924       6.72680771       8.96907695        1
N        2.24226924       6.72680771      11.21134619        2
N        2.24226924       4.48453848       8.96907695        2
N        0.00000000       6.72680771       8.96907695        2
N        0.00000000       4.48453848      11.21134619        2
Ti       0.00000000       8.96907695       0.00000000        1
Zr       0.00000000      11.21134619       2.24226924        1
Ti       2.24226924       8.96907695       2.24226924        1
Hf       2.24226924      11.21134619       0.00000000        1
N        2.24226924      11.21134619       2.24226924        2
N        2.24226924       8.96907695       0.00000000        2
N        0.00000000      11.21134619       0.00000000        2
N        0.00000000       8.96907695       2.24226924        2
Ta       0.00000000       8.96907695       4.48453848        1
Nb       0.00000000      11.21134619       6.72680771        1
Ta       2.24226924       8.96907695       6.72680771        1
Zr       2.24226924      11.21134619       4.48453848        1
N        2.24226924      11.21134619       6.72680771        2
N        2.24226924       8.96907695       4.48453848        2
N        0.00000000      11.21134619       4.48453848        2
N        0.00000000       8.96907695       6.72680771        2
Zr       0.00000000       8.96907695       8.96907695        1
Ta       0.00000000      11.21134619      11.21134619        1
Hf       2.24226924       8.96907695      11.21134619        1
Ta       2.24226924      11.21134619       8.96907695        1
N        2.24226924      11.21134619      11.21134619        2
N        2.24226924       8.96907695       8.96907695        2
N        0.00000000      11.21134619       8.96907695        2
N        0.00000000       8.96907695      11.21134619        2
Nb       4.48453848       0.00000000       0.00000000        1
Zr       4.48453848       2.24226924       2.24226924        1
Hf       6.72680771       0.00000000       2.24226924        1
Ti       6.72680771       2.24226924       0.00000000        1
N        6.72680771       2.24226924       2.24226924        2
N        6.72680771       0.00000000       0.00000000        2
N        4.48453848       2.24226924       0.00000000        2
N        4.48453848       0.00000000       2.24226924        2
Nb       4.48453848       0.00000000       4.48453848        1
Ta       4.48453848       2.24226924       6.72680771        1
Ti       6.72680771       0.00000000       6.72680771        1
Zr       6.72680771       2.24226924       4.48453848        1
N        6.72680771       2.24226924       6.72680771        2
N        6.72680771       0.00000000       4.48453848        2
N        4.48453848       2.24226924       4.48453848        2
N        4.48453848       0.00000000       6.72680771        2
Hf       4.48453848       0.00000000       8.96907695        1
Zr       4.48453848       2.24226924      11.21134619        1
Zr       6.72680771       0.00000000      11.21134619        1
Zr       6.72680771       2.24226924       8.96907695        1
N        6.72680771       2.24226924      11.21134619        2
N        6.72680771       0.00000000       8.96907695        2
N        4.48453848       2.24226924       8.96907695        2
N        4.48453848       0.00000000      11.21134619        2
Ti       4.48453848       4.48453848       0.00000000        1
Ti       4.48453848       6.72680771       2.24226924        1
Nb       6.72680771       4.48453848       2.24226924        1
Zr       6.72680771       6.72680771       0.00000000        1
N        6.72680771       6.72680771       2.24226924        2
N        6.72680771       4.48453848       0.00000000        2
N        4.48453848       6.72680771       0.00000000        2
N        4.48453848       4.48453848       2.24226924        2
Nb       4.48453848       4.48453848       4.48453848        1
Ti       4.48453848       6.72680771       6.72680771        1
Ti       6.72680771       4.48453848       6.72680771        1
Hf       6.72680771       6.72680771       4.48453848        1
N        6.72680771       6.72680771       6.72680771        2
N        6.72680771       4.48453848       4.48453848        2
N        4.48453848       6.72680771       4.48453848        2
N        4.48453848       4.48453848       6.72680771        2
Ta       4.48453848       4.48453848       8.96907695        1
Zr       4.48453848       6.72680771      11.21134619        1
Nb       6.72680771       4.48453848      11.21134619        1
Hf       6.72680771       6.72680771       8.96907695        1
N        6.72680771       6.72680771      11.21134619        2
N        6.72680771       4.48453848       8.96907695        2
N        4.48453848       6.72680771       8.96907695        2
N        4.48453848       4.48453848      11.21134619        2
Hf       4.48453848       8.96907695       0.00000000        1
Ti       4.48453848      11.21134619       2.24226924        1
Ta       6.72680771       8.96907695       2.24226924        1
Ta       6.72680771      11.21134619       0.00000000        1
N        6.72680771      11.21134619       2.24226924        2
N        6.72680771       8.96907695       0.00000000        2
N        4.48453848      11.21134619       0.00000000        2
N        4.48453848       8.96907695       2.24226924        2
Hf       4.48453848       8.96907695       4.48453848        1
Hf       4.48453848      11.21134619       6.72680771        1
Ti       6.72680771       8.96907695       6.72680771        1
Ti       6.72680771      11.21134619       4.48453848        1
N        6.72680771      11.21134619       6.72680771        2
N        6.72680771       8.96907695       4.48453848        2
N        4.48453848      11.21134619       4.48453848        2
N        4.48453848       8.96907695       6.72680771        2
Nb       4.48453848       8.96907695       8.96907695        1
Hf       4.48453848      11.21134619      11.21134619        1
Ta       6.72680771       8.96907695      11.21134619        1
Nb       6.72680771      11.21134619       8.96907695        1
N        6.72680771      11.21134619      11.21134619        2
N        6.72680771       8.96907695       8.96907695        2
N        4.48453848      11.21134619       8.96907695        2
N        4.48453848       8.96907695      11.21134619        2
Ti       8.96907695       0.00000000       0.00000000        1
Ta       8.96907695       2.24226924       2.24226924        1
Nb      11.21134619       0.00000000       2.24226924        1
Zr      11.21134619       2.24226924       0.00000000        1
N       11.21134619       2.24226924       2.24226924        2
N       11.21134619       0.00000000       0.00000000        2
N        8.96907695       2.24226924       0.00000000        2
N        8.96907695       0.00000000       2.24226924        2
Hf       8.96907695       0.00000000       4.48453848        1
Ta       8.96907695       2.24226924       6.72680771        1
Ti      11.21134619       0.00000000       6.72680771        1
Zr      11.21134619       2.24226924       4.48453848        1
N       11.21134619       2.24226924       6.72680771        2
N       11.21134619       0.00000000       4.48453848        2
N        8.96907695       2.24226924       4.48453848        2
N        8.96907695       0.00000000       6.72680771        2
Zr       8.96907695       0.00000000       8.96907695        1
Ti       8.96907695       2.24226924      11.21134619        1
Nb      11.21134619       0.00000000      11.21134619        1
Ta      11.21134619       2.24226924       8.96907695        1
N       11.21134619       2.24226924      11.21134619        2
N       11.21134619       0.00000000       8.96907695        2
N        8.96907695       2.24226924       8.96907695        2
N        8.96907695       0.00000000      11.21134619        2
Ta       8.96907695       4.48453848       0.00000000        1
Nb       8.96907695       6.72680771       2.24226924        1
Hf      11.21134619       4.48453848       2.24226924        1
Ti      11.21134619       6.72680771       0.00000000        1
N       11.21134619       6.72680771       2.24226924        2
N       11.21134619       4.48453848       0.00000000        2
N        8.96907695       6.72680771       0.00000000        2
N        8.96907695       4.48453848       2.24226924        2
Hf       8.96907695       4.48453848       4.48453848        1
Zr       8.96907695       6.72680771       6.72680771        1
Nb      11.21134619       4.48453848       6.72680771        1
Ta      11.21134619       6.72680771       4.48453848        1
N       11.21134619       6.72680771       6.72680771        2
N       11.21134619       4.48453848       4.48453848        2
N        8.96907695       6.72680771       4.48453848        2
N        8.96907695       4.48453848       6.72680771        2
Zr       8.96907695       4.48453848       8.96907695        1
Zr       8.96907695       6.72680771      11.21134619        1
Ti      11.21134619       4.48453848      11.21134619        1
Ta      11.21134619       6.72680771       8.96907695        1
N       11.21134619       6.72680771      11.21134619        2
N       11.21134619       4.48453848       8.96907695        2
N        8.96907695       6.72680771       8.96907695        2
N        8.96907695       4.48453848      11.21134619        2
Zr       8.96907695       8.96907695       0.00000000        1
Nb       8.96907695      11.21134619       2.24226924        1
Ti      11.21134619       8.96907695       2.24226924        1
Hf      11.21134619      11.21134619       0.00000000        1
N       11.21134619      11.21134619       2.24226924        2
N       11.21134619       8.96907695       0.00000000        2
N        8.96907695      11.21134619       0.00000000        2
N        8.96907695       8.96907695       2.24226924        2
Ta       8.96907695       8.96907695       4.48453848        1
Nb       8.96907695      11.21134619       6.72680771        1
Ti      11.21134619       8.96907695       6.72680771        1
Ta      11.21134619      11.21134619       4.48453848        1
N       11.21134619      11.21134619       6.72680771        2
N       11.21134619       8.96907695       4.48453848        2
N        8.96907695      11.21134619       4.48453848        2
N        8.96907695       8.96907695       6.72680771        2
Ta       8.96907695       8.96907695       8.96907695        1
Nb       8.96907695      11.21134619      11.21134619        1
Hf      11.21134619       8.96907695      11.21134619        1
Hf      11.21134619      11.21134619       8.96907695        1
N       11.21134619      11.21134619      11.21134619        2
N       11.21134619       8.96907695       8.96907695        2
N        8.96907695      11.21134619       8.96907695        2
N        8.96907695       8.96907695      11.21134619        2
216
Lattice="13.453615425789224 0.0 0.0 0.0 13.453615425789224 0.0 0.0 0.0 13.453615425789224" Properties=species:S:1:pos:R:3:tags:I:1 sqs_abs_alpha=0.13230561646146063 energy=-2237.961452044078 mc_step=350 energy_method=uma rosenbluth_W_new=5.061686555149031 rosenbluth_W_old=3.53211395420507 pbc="T T T"
Ta       0.00000000       0.00000000       0.00000000        1
Ti       0.00000000       2.24226924       2.24226924        1
Zr       2.24226924       0.00000000       2.24226924        1
Ti       2.24226924       2.24226924       0.00000000        1
N        2.24226924       2.24226924       2.24226924        2
N        2.24226924       0.00000000       0.00000000        2
N        0.00000000       2.24226924       0.00000000        2
N        0.00000000       0.00000000       2.24226924        2
Nb       0.00000000       0.00000000       4.48453848        1
Hf       0.00000000       2.24226924       6.72680771        1
Ti       2.24226924       0.00000000       6.72680771        1
Ti       2.24226924       2.24226924       4.48453848        1
N        2.24226924       2.24226924       6.72680771        2
N        2.24226924       0.00000000       4.48453848        2
N        0.00000000       2.24226924       4.48453848        2
N        0.00000000       0.00000000       6.72680771        2
Zr       0.00000000       0.00000000       8.96907695        1
Hf       0.00000000       2.24226924      11.21134619        1
Hf       2.24226924       0.00000000      11.21134619        1
Zr       2.24226924       2.24226924       8.96907695        1
N        2.24226924       2.24226924      11.21134619        2
N        2.24226924       0.00000000       8.96907695        2
N        0.00000000       2.24226924       8.96907695        2
N        0.00000000       0.00000000      11.21134619        2
Hf       0.00000000       4.48453848       0.00000000        1
Zr       0.00000000       6.72680771       2.24226924        1
Nb       2.24226924       4.48453848       2.24226924        1
Ta       2.24226924       6.72680771       0.00000000        1
N        2.24226924       6.72680771       2.24226924        2
N        2.24226924       4.48453848       0.00000000        2
N        0.00000000       6.72680771       0.00000000        2
N        0.00000000       4.48453848       2.24226924        2
Nb       0.00000000       4.48453848       4.48453848        1
Ti       0.00000000       6.72680771       6.72680771        1
Hf       2.24226924       4.48453848       6.72680771        1
Zr       2.24226924       6.72680771       4.48453848        1
N        2.24226924       6.72680771       6.72680771        2
N        2.24226924       4.48453848       4.48453848        2
N        0.00000000       6.72680771       4.48453848        2
N        0.00000000       4.48453848       6.72680771        2
Nb       0.00000000       4.48453848       8.96907695        1
Zr       0.00000000       6.72680771      11.21134619        1
Ti       2.24226924       4.48453848      11.21134619        1
Nb       2.24226924       6.72680771       8.96907695        1
N        2.24226924       6.72680771      11.21134619        2
N        2.24226924       4.48453848       8.96907695        2
N        0.00000000       6.72680771       8.96907695        2
N        0.00000000       4.48453848      11.21134619        2
Ta       0.00000000       8.96907695       0.00000000        1
Zr       0.00000000      11.21134619       2.24226924        1
Ti       2.24226924       8.96907695       2.24226924        1
Hf       2.24226924      11.21134619       0.00000000        1
N        2.24226924      11.21134619       2.24226924        2
N        2.24226924       8.96907695       0.00000000        2
N        0.00000000      11.21134619       0.00000000        2
N        0.00000000       8.96907695       2.24226924        2
Nb       0.00000000       8.96907695       4.48453848        1
Zr       0.00000000      11.21134619       6.72680771        1
Nb       2.24226924       8.96907695       6.72680771        1
Nb       2.24226924      11.21134619       4.48453848        1
N        2.24226924      11.21134619       6.72680771        2
N        2.24226924       8.96907695       4.48453848        2
N        0.00000000      11.21134619       4.48453848        2
N        0.00000000       8.96907695       6.72680771        2
Zr       0.00000000       8.96907695       8.96907695        1
Ta       0.00000000      11.21134619      11.21134619        1
Hf       2.24226924       8.96907695      11.21134619        1
Ta       2.24226924      11.21134619       8.96907695        1
N        2.24226924      11.21134619      11.21134619        2
N        2.24226924       8.96907695       8.96907695        2
N        0.00000000      11.21134619       8.96907695        2
N        0.00000000       8.96907695      11.21134619        2
Nb       4.48453848       0.00000000       0.00000000        1
Zr       4.48453848       2.24226924       2.24226924        1
Ta       6.72680771       0.00000000       2.24226924        1
Ti       6.72680771       2.24226924       0.00000000        1
N        6.72680771       2.24226924       2.24226924        2
N        6.72680771       0.00000000       0.00000000        2
N        4.48453848       2.24226924       0.00000000        2
N        4.48453848       0.00000000       2.24226924        2
Ta       4.48453848       0.00000000       4.48453848        1
Zr       4.48453848       2.24226924       6.72680771        1
Nb       6.72680771       0.00000000       6.72680771        1
Zr       6.72680771       2.24226924       4.48453848        1
N        6.72680771       2.24226924       6.72680771        2
N        6.72680771       0.00000000       4.48453848        2
N        4.48453848       2.24226924       4.48453848        2
N        4.48453848       0.00000000       6.72680771        2
Hf       4.48453848       0.00000000       8.96907695        1
Zr       4.48453848       2.24226924      11.21134619        1
Zr       6.72680771       0.00000000      11.21134619        1
Zr       6.72680771       2.24226924       8.96907695        1
N        6.72680771       2.24226924      11.21134619        2
N        6.72680771       0.00000000       8.96907695        2
N        4.48453848       2.24226924       8.96907695        2
N        4.48453848       0.00000000      11.21134619        2
Ta       4.48453848       4.48453848       0.00000000        1
Hf       4.48453848       6.72680771       2.24226924        1
Ta       6.72680771       4.48453848       2.24226924        1
Ti       6.72680771       6.72680771       0.00000000        1
N        6.72680771       6.72680771       2.24226924        2
N        6.72680771       4.48453848       0.00000000        2
N        4.48453848       6.72680771       0.00000000        2
N        4.48453848       4.48453848       2.24226924        2
Hf       4.48453848       4.48453848       4.48453848        1
Ti       4.48453848       6.72680771       6.72680771        1
Ta       6.72680771       4.48453848       6.72680771        1
Zr       6.72680771       6.72680771       4.48453848        1
N        6.72680771       6.72680771       6.72680771        2
N        6.72680771       4.48453848       4.48453848        2
N        4.48453848       6.72680771       4.48453848        2
N        4.48453848       4.48453848       6.72680771        2
Ta       4.48453848       4.48453848       8.96907695        1
Zr       4.48453848       6.72680771      11.21134619        1
Nb       6.72680771       4.48453848      11.21134619        1
Hf       6.72680771       6.72680771       8.96907695        1
N        6.72680771       6.72680771      11.21134619        2
N        6.72680771       4.48453848       8.96907695        2
N        4.48453848       6.72680771       8.96907695        2
N        4.48453848       4.48453848      11.21134619        2
Hf       4.48453848       8.96907695       0.00000000        1
Ti       4.48453848      11.21134619       2.24226924        1
Ta       6.72680771       8.96907695       2.24226924        1
Ta       6.72680771      11.21134619       0.00000000        1
N        6.72680771      11.21134619       2.24226924        2
N        6.72680771       8.96907695       0.00000000        2
N        4.48453848      11.21134619       0.00000000        2
N        4.48453848       8.96907695       2.24226924        2
Ta       4.48453848       8.96907695       4.48453848        1
Nb       4.48453848      11.21134619       6.72680771        1
Ti       6.72680771       8.96907695       6.72680771        1
Ti       6.72680771      11.21134619       4.48453848        1
N        6.72680771      11.21134619       6.72680771        2
N        6.72680771       8.96907695       4.48453848        2
N        4.48453848      11.21134619       4.48453848        2
N        4.48453848       8.96907695       6.72680771        2
Nb       4.48453848       8.96907695       8.96907695        1
Hf       4.48453848      11.21134619      11.21134619        1
Ti       6.72680771       8.96907695      11.21134619        1
Zr       6.72680771      11.21134619       8.96907695        1
N        6.72680771      11.21134619      11.21134619        2
N        6.72680771       8.96907695       8.96907695        2
N        4.48453848      11.21134619       8.96907695        2
N        4.48453848       8.96907695      11.21134619        2
Ti       8.96907695       0.00000000       0.00000000        1
Ti       8.96907695       2.24226924       2.24226924        1
Nb      11.21134619       0.00000000       2.24226924        1
Zr      11.21134619       2.24226924       0.00000000        1
N       11.21134619       2.24226924       2.24226924        2
N       11.21134619       0.00000000       0.00000000        2
N        8.96907695       2.24226924       0.00000000        2
N        8.96907695       0.00000000       2.24226924        2
Hf       8.96907695       0.00000000       4.48453848        1
Nb       8.96907695       2.24226924       6.72680771        1
Zr      11.21134619       0.00000000       6.72680771        1
Zr      11.21134619       2.24226924       4.48453848        1
N       11.21134619       2.24226924       6.72680771        2
N       11.21134619       0.00000000       4.48453848        2
N        8.96907695       2.24226924       4.48453848        2
N        8.96907695       0.00000000       6.72680771        2
Ti       8.96907695       0.00000000       8.96907695        1
Nb       8.96907695       2.24226924      11.21134619        1
Nb      11.21134619       0.00000000      11.21134619        1
Ta      11.21134619       2.24226924       8.96907695        1
N       11.21134619       2.24226924      11.21134619        2
N       11.21134619       0.00000000       8.96907695        2
N        8.96907695       2.24226924       8.96907695        2
N        8.96907695       0.00000000      11.21134619        2
Nb       8.96907695       4.48453848       0.00000000        1
Nb       8.96907695       6.72680771       2.24226924        1
Hf      11.21134619       4.48453848       2.24226924        1
Hf      11.21134619       6.72680771       0.00000000        1
N       11.21134619       6.72680771       2.24226924        2
N       11.21134619       4.48453848       0.00000000        2
N        8.96907695       6.72680771       0.00000000        2
N        8.96907695       4.48453848       2.24226924        2
Hf       8.96907695       4.48453848       4.48453848        1
Ti       8.96907695       6.72680771       6.72680771        1
Zr      11.21134619       4.48453848       6.72680771        1
Nb      11.21134619       6.72680771       4.48453848        1
N       11.21134619       6.72680771       6.72680771        2
N       11.21134619       4.48453848       4.48453848        2
N        8.96907695       6.72680771       4.48453848        2
N        8.96907695       4.48453848       6.72680771        2
Hf       8.96907695       4.48453848       8.96907695        1
Ta       8.96907695       6.72680771      11.21134619        1
Ti      11.21134619       4.48453848      11.21134619        1
Ti      11.21134619       6.72680771       8.96907695        1
N       11.21134619       6.72680771      11.21134619        2
N       11.21134619       4.48453848       8.96907695        2
N        8.96907695       6.72680771       8.96907695        2
N        8.96907695       4.48453848      11.21134619        2
Hf       8.96907695       8.96907695       0.00000000        1
Hf       8.96907695      11.21134619       2.24226924        1
Ti      11.21134619       8.96907695       2.24226924        1
Hf      11.21134619      11.21134619       0.00000000        1
N       11.21134619      11.21134619       2.24226924        2
N       11.21134619       8.96907695       0.00000000        2
N        8.96907695      11.21134619       0.00000000        2
N        8.96907695       8.96907695       2.24226924        2
Ta       8.96907695       8.96907695       4.48453848        1
Ta       8.96907695      11.21134619       6.72680771        1
Nb      11.21134619       8.96907695       6.72680771        1
Ta      11.21134619      11.21134619       4.48453848        1
N       11.21134619      11.21134619       6.72680771        2
N       11.21134619       8.96907695       4.48453848        2
N        8.96907695      11.21134619       4.48453848        2
N        8.96907695       8.96907695       6.72680771        2
Ta       8.96907695       8.96907695       8.96907695        1
Ta       8.96907695      11.21134619      11.21134619        1
Ti      11.21134619       8.96907695      11.21134619        1
Hf      11.21134619      11.21134619       8.96907695        1
N       11.21134619      11.21134619      11.21134619        2
N       11.21134619       8.96907695       8.96907695        2
N        8.96907695      11.21134619       8.96907695        2
N        8.96907695       8.96907695      11.21134619        2
216
Lattice="13.453615425789224 0.0 0.0 0.0 13.453615425789224 0.0 0.0 0.0 13.453615425789224" Properties=species:S:1:pos:R:3:tags:I:1 sqs_abs_alpha=0.07215719345589477 energy=-2237.8273702182523 mc_step=400 energy_method=uma rosenbluth_W_new=4.986113979826789 rosenbluth_W_old=5.917828955624348 pbc="T T T"
Nb       0.00000000       0.00000000       0.00000000        1
Zr       0.00000000       2.24226924       2.24226924        1
Zr       2.24226924       0.00000000       2.24226924        1
Nb       2.24226924       2.24226924       0.00000000        1
N        2.24226924       2.24226924       2.24226924        2
N        2.24226924       0.00000000       0.00000000        2
N        0.00000000       2.24226924       0.00000000        2
N        0.00000000       0.00000000       2.24226924        2
Nb       0.00000000       0.00000000       4.48453848        1
Ti       0.00000000       2.24226924       6.72680771        1
Ti       2.24226924       0.00000000       6.72680771        1
Ti       2.24226924       2.24226924       4.48453848        1
N        2.24226924       2.24226924       6.72680771        2
N        2.24226924       0.00000000       4.48453848        2
N        0.00000000       2.24226924       4.48453848        2
N        0.00000000       0.00000000       6.72680771        2
Nb       0.00000000       0.00000000       8.96907695        1
Hf       0.00000000       2.24226924      11.21134619        1
Hf       2.24226924       0.00000000      11.21134619        1
Ti       2.24226924       2.24226924       8.96907695        1
N        2.24226924       2.24226924      11.21134619        2
N        2.24226924       0.00000000       8.96907695        2
N        0.00000000       2.24226924       8.96907695        2
N        0.00000000       0.00000000      11.21134619        2
Hf       0.00000000       4.48453848       0.00000000        1
Ta       0.00000000       6.72680771       2.24226924        1
Nb       2.24226924       4.48453848       2.24226924        1
Ti       2.24226924       6.72680771       0.00000000        1
N        2.24226924       6.72680771       2.24226924        2
N        2.24226924       4.48453848       0.00000000        2
N        0.00000000       6.72680771       0.00000000        2
N        0.00000000       4.48453848       2.24226924        2
Nb       0.00000000       4.48453848       4.48453848        1
Ti       0.00000000       6.72680771       6.72680771        1
Zr       2.24226924       4.48453848       6.72680771        1
Ta       2.24226924       6.72680771       4.48453848        1
N        2.24226924       6.72680771       6.72680771        2
N        2.24226924       4.48453848       4.48453848        2
N        0.00000000       6.72680771       4.48453848        2
N        0.00000000       4.48453848       6.72680771        2
Nb       0.00000000       4.48453848       8.96907695        1
Ti       0.00000000       6.72680771      11.21134619        1
Ti       2.24226924       4.48453848      11.21134619        1
Nb       2.24226924       6.72680771       8.96907695        1
N        2.24226924       6.72680771      11.21134619        2
N        2.24226924       4.48453848       8.96907695        2
N        0.00000000       6.72680771       8.96907695        2
N        0.00000000       4.48453848      11.21134619        2
Zr       0.00000000       8.96907695       0.00000000        1
Hf       0.00000000      11.21134619       2.24226924        1
Hf       2.24226924       8.96907695       2.24226924        1
Hf       2.24226924      11.21134619       0.00000000        1
N        2.24226924      11.21134619       2.24226924        2
N        2.24226924       8.96907695       0.00000000        2
N        0.00000000      11.21134619       0.00000000        2
N        0.00000000       8.96907695       2.24226924        2
Nb       0.00000000       8.96907695       4.48453848        1
Nb       0.00000000      11.21134619       6.72680771        1
Ta       2.24226924       8.96907695       6.72680771        1
Nb       2.24226924      11.21134619       4.48453848        1
N        2.24226924      11.21134619       6.72680771        2
N        2.24226924       8.96907695       4.48453848        2
N        0.00000000      11.21134619       4.48453848        2
N        0.00000000       8.96907695       6.72680771        2
Zr       0.00000000       8.96907695       8.96907695        1
Nb       0.00000000      11.21134619      11.21134619        1
Hf       2.24226924       8.96907695      11.21134619        1
Ta       2.24226924      11.21134619       8.96907695        1
N        2.24226924      11.21134619      11.21134619        2
N        2.24226924       8.96907695       8.96907695        2
N        0.00000000      11.21134619       8.96907695        2
N        0.00000000       8.96907695      11.21134619        2
Zr       4.48453848       0.00000000       0.00000000        1
Zr       4.48453848       2.24226924       2.24226924        1
Ta       6.72680771       0.00000000       2.24226924        1
Hf       6.72680771       2.24226924       0.00000000        1
N        6.72680771       2.24226924       2.24226924        2
N        6.72680771       0.00000000       0.00000000        2
N        4.48453848       2.24226924       0.00000000        2
N        4.48453848       0.00000000       2.24226924        2
Zr       4.48453848       0.00000000       4.48453848        1
Zr       4.48453848       2.24226924       6.72680771        1
Nb       6.72680771       0.00000000       6.72680771        1
Ta       6.72680771       2.24226924       4.48453848        1
N        6.72680771       2.24226924       6.72680771        2
N        6.72680771       0.00000000       4.48453848        2
N        4.48453848       2.24226924       4.48453848        2
N        4.48453848       0.00000000       6.72680771        2
Hf       4.48453848       0.00000000       8.96907695        1
Zr       4.48453848       2.24226924      11.21134619        1
Ti       6.72680771       0.00000000      11.21134619        1
Zr       6.72680771       2.24226924       8.96907695        1
N        6.72680771       2.24226924      11.21134619        2
N        6.72680771       0.00000000       8.96907695        2
N        4.48453848       2.24226924       8.96907695        2
N        4.48453848       0.00000000      11.21134619        2
Ta       4.48453848       4.48453848       0.00000000        1
Hf       4.48453848       6.72680771       2.24226924        1
Ti       6.72680771       4.48453848       2.24226924        1
Ti       6.72680771       6.72680771       0.00000000        1
N        6.72680771       6.72680771       2.24226924        2
N        6.72680771       4.48453848       0.00000000        2
N        4.48453848       6.72680771       0.00000000        2
N        4.48453848       4.48453848       2.24226924        2
Zr       4.48453848       4.48453848       4.48453848        1
Ta       4.48453848       6.72680771       6.72680771        1
Ta       6.72680771       4.48453848       6.72680771        1
Zr       6.72680771       6.72680771       4.48453848        1
N        6.72680771       6.72680771       6.72680771        2
N        6.72680771       4.48453848       4.48453848        2
N        4.48453848       6.72680771       4.48453848        2
N        4.48453848       4.48453848       6.72680771        2
Hf       4.48453848       4.48453848       8.96907695        1
Hf       4.48453848       6.72680771      11.21134619        1
Ta       6.72680771       4.48453848      11.21134619        1
Zr       6.72680771       6.72680771       8.96907695        1
N        6.72680771       6.72680771      11.21134619        2
N        6.72680771       4.48453848       8.96907695        2
N        4.48453848       6.72680771       8.96907695        2
N        4.48453848       4.48453848      11.21134619        2
Hf       4.48453848       8.96907695       0.00000000        1
Ti       4.48453848      11.21134619       2.24226924        1
Ta       6.72680771       8.96907695       2.24226924        1
Ta       6.72680771      11.21134619       0.00000000        1
N        6.72680771      11.21134619       2.24226924        2
N        6.72680771       8.96907695       0.00000000        2
N        4.48453848      11.21134619       0.00000000        2
N        4.48453848       8.96907695       2.24226924        2
Zr       4.48453848       8.96907695       4.48453848        1
Zr       4.48453848      11.21134619       6.72680771        1
Ti       6.72680771       8.96907695       6.72680771        1
Ti       6.72680771      11.21134619       4.48453848        1
N        6.72680771      11.21134619       6.72680771        2
N        6.72680771       8.96907695       4.48453848        2
N        4.48453848      11.21134619       4.48453848        2
N        4.48453848       8.96907695       6.72680771        2
Ta       4.48453848       8.96907695       8.96907695        1
Ta       4.48453848      11.21134619      11.21134619        1
Ti       6.72680771       8.96907695      11.21134619        1
Nb       6.72680771      11.21134619       8.96907695        1
N        6.72680771      11.21134619      11.21134619        2
N        6.72680771       8.96907695       8.96907695        2
N        4.48453848      11.21134619       8.96907695        2
N        4.48453848       8.96907695      11.21134619        2
Ti       8.96907695       0.00000000       0.00000000        1
Ta       8.96907695       2.24226924       2.24226924        1
Ti      11.21134619       0.00000000       2.24226924        1
Zr      11.21134619       2.24226924       0.00000000        1
N       11.21134619       2.24226924       2.24226924        2
N       11.21134619       0.00000000       0.00000000        2
N        8.96907695       2.24226924       0.00000000        2
N        8.96907695       0.00000000       2.24226924        2
Hf       8.96907695       0.00000000       4.48453848        1
Nb       8.96907695       2.24226924       6.72680771        1
Zr      11.21134619       0.00000000       6.72680771        1
Ta      11.21134619       2.24226924       4.48453848        1
N       11.21134619       2.24226924       6.72680771        2
N       11.21134619       0.00000000       4.48453848        2
N        8.96907695       2.24226924       4.48453848        2
N        8.96907695       0.00000000       6.72680771        2
Hf       8.96907695       0.00000000       8.96907695        1
Ta       8.96907695       2.24226924      11.21134619        1
Nb      11.21134619       0.00000000      11.21134619        1
Zr      11.21134619       2.24226924       8.96907695        1
N       11.21134619       2.24226924      11.21134619        2
N       11.21134619       0.00000000       8.96907695        2
N        8.96907695       2.24226924       8.96907695        2
N        8.96907695       0.00000000      11.21134619        2
Ti       8.96907695       4.48453848       0.00000000        1
Nb       8.96907695       6.72680771       2.24226924        1
Hf      11.21134619       4.48453848       2.24226924        1
Hf      11.21134619       6.72680771       0.00000000        1
N       11.21134619       6.72680771       2.24226924        2
N       11.21134619       4.48453848       0.00000000        2
N        8.96907695       6.72680771       0.00000000        2
N        8.96907695       4.48453848       2.24226924        2
Hf       8.96907695       4.48453848       4.48453848        1
Zr       8.96907695       6.72680771       6.72680771        1
Zr      11.21134619       4.48453848       6.72680771        1
Ti      11.21134619       6.72680771       4.48453848        1
N       11.21134619       6.72680771       6.72680771        2
N       11.21134619       4.48453848       4.48453848        2
N        8.96907695       6.72680771       4.48453848        2
N        8.96907695       4.48453848       6.72680771        2
Hf       8.96907695       4.48453848       8.96907695        1
Ta       8.96907695       6.72680771      11.21134619        1
Ti      11.21134619       4.48453848      11.21134619        1
Nb      11.21134619       6.72680771       8.96907695        1
N       11.21134619       6.72680771      11.21134619        2
N       11.21134619       4.48453848       8.96907695        2
N        8.96907695       6.72680771       8.96907695        2
N        8.96907695       4.48453848      11.21134619        2
Ta       8.96907695       8.96907695       0.00000000        1
Hf       8.96907695      11.21134619       2.24226924        1
Ti      11.21134619       8.96907695       2.24226924        1
Ti      11.21134619      11.21134619       0.00000000        1
N       11.21134619      11.21134619       2.24226924        2
N       11.21134619       8.96907695       0.00000000        2
N        8.96907695      11.21134619       0.00000000        2
N        8.96907695       8.96907695       2.24226924        2
Nb       8.96907695       8.96907695       4.48453848        1
Ta       8.96907695      11.21134619       6.72680771        1
Nb      11.21134619       8.96907695       6.72680771        1
Zr      11.21134619      11.21134619       4.48453848        1
N       11.21134619      11.21134619       6.72680771        2
N       11.21134619       8.96907695       4.48453848        2
N        8.96907695      11.21134619       4.48453848        2
N        8.96907695       8.96907695       6.72680771        2
Hf       8.96907695       8.96907695       8.96907695        1
Ta       8.96907695      11.21134619      11.21134619        1
Nb      11.21134619       8.96907695      11.21134619        1
Hf      11.21134619      11.21134619       8.96907695        1
N       11.21134619      11.21134619      11.21134619        2
N       11.21134619       8.96907695       8.96907695        2
N        8.96907695      11.21134619       8.96907695        2
N        8.96907695       8.96907695      11.21134619        2
216
Lattice="13.453615425789224 0.0 0.0 0.0 13.453615425789224 0.0 0.0 0.0 13.453615425789224" Properties=species:S:1:pos:R:3:tags:I:1 sqs_abs_alpha=0.09607691010288415 energy=-2238.127777861586 mc_step=450 energy_method=uma rosenbluth_W_new=5.256021701853926 rosenbluth_W_old=4.492389973685849 pbc="T T T"
Nb       0.00000000       0.00000000       0.00000000        1
Zr       0.00000000       2.24226924       2.24226924        1
Zr       2.24226924       0.00000000       2.24226924        1
Ti       2.24226924       2.24226924       0.00000000        1
N        2.24226924       2.24226924       2.24226924        2
N        2.24226924       0.00000000       0.00000000        2
N        0.00000000       2.24226924       0.00000000        2
N        0.00000000       0.00000000       2.24226924        2
Hf       0.00000000       0.00000000       4.48453848        1
Ta       0.00000000       2.24226924       6.72680771        1
Ti       2.24226924       0.00000000       6.72680771        1
Ti       2.24226924       2.24226924       4.48453848        1
N        2.24226924       2.24226924       6.72680771        2
N        2.24226924       0.00000000       4.48453848        2
N        0.00000000       2.24226924       4.48453848        2
N        0.00000000       0.00000000       6.72680771        2
Ta       0.00000000       0.00000000       8.96907695        1
Hf       0.00000000       2.24226924      11.21134619        1
Hf       2.24226924       0.00000000      11.21134619        1
Ta       2.24226924       2.24226924       8.96907695        1
N        2.24226924       2.24226924      11.21134619        2
N        2.24226924       0.00000000       8.96907695        2
N        0.00000000       2.24226924       8.96907695        2
N        0.00000000       0.00000000      11.21134619        2
Hf       0.00000000       4.48453848       0.00000000        1
Nb       0.00000000       6.72680771       2.24226924        1
Ta       2.24226924       4.48453848       2.24226924        1
Ti       2.24226924       6.72680771       0.00000000        1
N        2.24226924       6.72680771       2.24226924        2
N        2.24226924       4.48453848       0.00000000        2
N        0.00000000       6.72680771       0.00000000        2
N        0.00000000       4.48453848       2.24226924        2
Hf       0.00000000       4.48453848       4.48453848        1
Nb       0.00000000       6.72680771       6.72680771        1
Zr       2.24226924       4.48453848       6.72680771        1
Nb       2.24226924       6.72680771       4.48453848        1
N        2.24226924       6.72680771       6.72680771        2
N        2.24226924       4.48453848       4.48453848        2
N        0.00000000       6.72680771       4.48453848        2
N        0.00000000       4.48453848       6.72680771        2
Nb       0.00000000       4.48453848       8.96907695        1
Ta       0.00000000       6.72680771      11.21134619        1
Ti       2.24226924       4.48453848      11.21134619        1
Ta       2.24226924       6.72680771       8.96907695        1
N        2.24226924       6.72680771      11.21134619        2
N        2.24226924       4.48453848       8.96907695        2
N        0.00000000       6.72680771       8.96907695        2
N        0.00000000       4.48453848      11.21134619        2
Hf       0.00000000       8.96907695       0.00000000        1
Hf       0.00000000      11.21134619       2.24226924        1
Hf       2.24226924       8.96907695       2.24226924        1
Zr       2.24226924      11.21134619       0.00000000        1
N        2.24226924      11.21134619       2.24226924        2
N        2.24226924       8.96907695       0.00000000        2
N        0.00000000      11.21134619       0.00000000        2
N        0.00000000       8.96907695       2.24226924        2
Nb       0.00000000       8.96907695       4.48453848        1
Hf       0.00000000      11.21134619       6.72680771        1
Ta       2.24226924       8.96907695       6.72680771        1
Nb       2.24226924      11.21134619       4.48453848        1
N        2.24226924      11.21134619       6.72680771        2
N        2.24226924       8.96907695       4.48453848        2
N        0.00000000      11.21134619       4.48453848        2
N        0.00000000       8.96907695       6.72680771        2
Zr       0.00000000       8.96907695       8.96907695        1
Ti       0.00000000      11.21134619      11.21134619        1
Hf       2.24226924       8.96907695      11.21134619        1
Nb       2.24226924      11.21134619       8.96907695        1
N        2.24226924      11.21134619      11.21134619        2
N        2.24226924       8.96907695       8.96907695        2
N        0.00000000      11.21134619       8.96907695        2
N        0.00000000       8.96907695      11.21134619        2
Ti       4.48453848       0.00000000       0.00000000        1
Nb       4.48453848       2.24226924       2.24226924        1
Ta       6.72680771       0.00000000       2.24226924        1
Zr       6.72680771       2.24226924       0.00000000        1
N        6.72680771       2.24226924       2.24226924        2
N        6.72680771       0.00000000       0.00000000        2
N        4.48453848       2.24226924       0.00000000        2
N        4.48453848       0.00000000       2.24226924        2
Ta       4.48453848       0.00000000       4.48453848        1
Zr       4.48453848       2.24226924       6.72680771        1
Hf       6.72680771       0.00000000       6.72680771        1
Ta       6.72680771       2.24226924       4.48453848        1
N        6.72680771       2.24226924       6.72680771        2
N        6.72680771       0.00000000       4.48453848        2
N        4.48453848       2.24226924       4.48453848        2
N        4.48453848       0.00000000       6.72680771        2
Hf       4.48453848       0.00000000       8.96907695        1
Zr       4.48453848       2.24226924      11.21134619        1
Ti       6.72680771       0.00000000      11.21134619        1
Zr       6.72680771       2.24226924       8.96907695        1
N        6.72680771       2.24226924      11.21134619        2
N        6.72680771       0.00000000       8.96907695        2
N        4.48453848       2.24226924       8.96907695        2
N        4.48453848       0.00000000      11.21134619        2
Ta       4.48453848       4.48453848       0.00000000        1
Zr       4.48453848       6.72680771       2.24226924        1
Ta       6.72680771       4.48453848       2.24226924        1
Ti       6.72680771       6.72680771       0.00000000        1
N        6.72680771       6.72680771       2.24226924        2
N        6.72680771       4.48453848       0.00000000        2
N        4.48453848       6.72680771       0.00000000        2
N        4.48453848       4.48453848       2.24226924        2
Zr       4.48453848       4.48453848       4.48453848        1
Ta       4.48453848       6.72680771       6.72680771        1
Ti       6.72680771       4.48453848       6.72680771        1
Hf       6.72680771       6.72680771       4.48453848        1
N        6.72680771       6.72680771       6.72680771        2
N        6.72680771       4.48453848       4.48453848        2
N        4.48453848       6.72680771       4.48453848        2
N        4.48453848       4.48453848       6.72680771        2
Hf       4.48453848       4.48453848       8.96907695        1
Hf       4.48453848       6.72680771      11.21134619        1
Ta       6.72680771       4.48453848      11.21134619        1
Zr       6.72680771       6.72680771       8.96907695        1
N        6.72680771       6.72680771      11.21134619        2
N        6.72680771       4.48453848       8.96907695        2
N        4.48453848       6.72680771       8.96907695        2
N        4.48453848       4.48453848      11.21134619        2
Nb       4.48453848       8.96907695       0.00000000        1
Hf       4.48453848      11.21134619       2.24226924        1
Ta       6.72680771       8.96907695       2.24226924        1
Zr       6.72680771      11.21134619       0.00000000        1
N        6.72680771      11.21134619       2.24226924        2
N        6.72680771       8.96907695       0.00000000        2
N        4.48453848      11.21134619       0.00000000        2
N        4.48453848       8.96907695       2.24226924        2
Ti       4.48453848       8.96907695       4.48453848        1
Zr       4.48453848      11.21134619       6.72680771        1
Ti       6.72680771       8.96907695       6.72680771        1
Nb       6.72680771      11.21134619       4.48453848        1
N        6.72680771      11.21134619       6.72680771        2
N        6.72680771       8.96907695       4.48453848        2
N        4.48453848      11.21134619       4.48453848        2
N        4.48453848       8.96907695       6.72680771        2
Ta       4.48453848       8.96907695       8.96907695        1
Nb       4.48453848      11.21134619      11.21134619        1
Ti       6.72680771       8.96907695      11.21134619        1
Nb       6.72680771      11.21134619       8.96907695        1
N        6.72680771      11.21134619      11.21134619        2
N        6.72680771       8.96907695       8.96907695        2
N        4.48453848      11.21134619       8.96907695        2
N        4.48453848       8.96907695      11.21134619        2
Hf       8.96907695       0.00000000       0.00000000        1
Ta       8.96907695       2.24226924       2.24226924        1
Nb      11.21134619       0.00000000       2.24226924        1
Ti      11.21134619       2.24226924       0.00000000        1
N       11.21134619       2.24226924       2.24226924        2
N       11.21134619       0.00000000       0.00000000        2
N        8.96907695       2.24226924       0.00000000        2
N        8.96907695       0.00000000       2.24226924        2
Zr       8.96907695       0.00000000       4.48453848        1
Zr       8.96907695       2.24226924       6.72680771        1
Nb      11.21134619       0.00000000       6.72680771        1
Ta      11.21134619       2.24226924       4.48453848        1
N       11.21134619       2.24226924       6.72680771        2
N       11.21134619       0.00000000       4.48453848        2
N        8.96907695       2.24226924       4.48453848        2
N        8.96907695       0.00000000       6.72680771        2
Ti       8.96907695       0.00000000       8.96907695        1
Hf       8.96907695       2.24226924      11.21134619        1
Ti      11.21134619       0.00000000      11.21134619        1
Hf      11.21134619       2.24226924       8.96907695        1
N       11.21134619       2.24226924      11.21134619        2
N       11.21134619       0.00000000       8.96907695        2
N        8.96907695       2.24226924       8.96907695        2
N        8.96907695       0.00000000      11.21134619        2
Hf       8.96907695       4.48453848       0.00000000        1
Ta       8.96907695       6.72680771       2.24226924        1
Zr      11.21134619       4.48453848       2.24226924        1
Ti      11.21134619       6.72680771       0.00000000        1
N       11.21134619       6.72680771       2.24226924        2
N       11.21134619       4.48453848       0.00000000        2
N        8.96907695       6.72680771       0.00000000        2
N        8.96907695       4.48453848       2.24226924        2
Nb       8.96907695       4.48453848       4.48453848        1
Nb       8.96907695       6.72680771       6.72680771        1
Zr      11.21134619       4.48453848       6.72680771        1
Nb      11.21134619       6.72680771       4.48453848        1
N       11.21134619       6.72680771       6.72680771        2
N       11.21134619       4.48453848       4.48453848        2
N        8.96907695       6.72680771       4.48453848        2
N        8.96907695       4.48453848       6.72680771        2
Zr       8.96907695       4.48453848       8.96907695        1
Ta       8.96907695       6.72680771      11.21134619        1
Ti      11.21134619       4.48453848      11.21134619        1
Ti      11.21134619       6.72680771       8.96907695        1
N       11.21134619       6.72680771      11.21134619        2
N       11.21134619       4.48453848       8.96907695        2
N        8.96907695       6.72680771       8.96907695        2
N        8.96907695       4.48453848      11.21134619        2
Zr       8.96907695       8.96907695       0.00000000        1
Ti       8.96907695      11.21134619       2.24226924        1
Ti      11.21134619       8.96907695       2.24226924        1
Ta      11.21134619      11.21134619       0.00000000        1
N       11.21134619      11.21134619       2.24226924        2
N       11.21134619       8.96907695       0.00000000        2
N        8.96907695      11.21134619       0.00000000        2
N        8.96907695       8.96907695       2.24226924        2
Nb       8.96907695       8.96907695       4.48453848        1
Nb       8.96907695      11.21134619       6.72680771        1
Ti      11.21134619       8.96907695       6.72680771        1
Zr      11.21134619      11.21134619       4.48453848        1
N       11.21134619      11.21134619       6.72680771        2
N       11.21134619       8.96907695       4.48453848        2
N        8.96907695      11.21134619       4.48453848        2
N        8.96907695       8.96907695       6.72680771        2
Zr       8.96907695       8.96907695       8.96907695        1
Nb       8.96907695      11.21134619      11.21134619        1
Hf      11.21134619       8.96907695      11.21134619        1
Hf      11.21134619      11.21134619       8.96907695        1
N       11.21134619      11.21134619      11.21134619        2
N       11.21134619       8.96907695       8.96907695        2
N        8.96907695      11.21134619       8.96907695        2
N        8.96907695       8.96907695      11.21134619        2
216
Lattice="13.453615425789224 0.0 0.0 0.0 13.453615425789224 0.0 0.0 0.0 13.453615425789224" Properties=species:S:1:pos:R:3:tags:I:1 sqs_abs_alpha=0.08351155338168326 energy=-2238.1793594116343 mc_step=500 energy_method=uma rosenbluth_W_new=4.596273346034644 rosenbluth_W_old=3.8078885731298757 pbc="T T T"
Nb       0.00000000       0.00000000       0.00000000        1
Zr       0.00000000       2.24226924       2.24226924        1
Zr       2.24226924       0.00000000       2.24226924        1
Nb       2.24226924       2.24226924       0.00000000        1
N        2.24226924       2.24226924       2.24226924        2
N        2.24226924       0.00000000       0.00000000        2
N        0.00000000       2.24226924       0.00000000        2
N        0.00000000       0.00000000       2.24226924        2
Hf       0.00000000       0.00000000       4.48453848        1
Hf       0.00000000       2.24226924       6.72680771        1
Nb       2.24226924       0.00000000       6.72680771        1
Ti       2.24226924       2.24226924       4.48453848        1
N        2.24226924       2.24226924       6.72680771        2
N        2.24226924       0.00000000       4.48453848        2
N        0.00000000       2.24226924       4.48453848        2
N        0.00000000       0.00000000       6.72680771        2
Ta       0.00000000       0.00000000       8.96907695        1
Zr       0.00000000       2.24226924      11.21134619        1
Hf       2.24226924       0.00000000      11.21134619        1
Ta       2.24226924       2.24226924       8.96907695        1
N        2.24226924       2.24226924      11.21134619        2
N        2.24226924       0.00000000       8.96907695        2
N        0.00000000       2.24226924       8.96907695        2
N        0.00000000       0.00000000      11.21134619        2
Hf       0.00000000       4.48453848       0.00000000        1
Hf       0.00000000       6.72680771       2.24226924        1
Ta       2.24226924       4.48453848       2.24226924        1
Ti       2.24226924       6.72680771       0.00000000        1
N        2.24226924       6.72680771       2.24226924        2
N        2.24226924       4.48453848       0.00000000        2
N        0.00000000       6.72680771       0.00000000        2
N        0.00000000       4.48453848       2.24226924        2
Nb       0.00000000       4.48453848       4.48453848        1
Ta       0.00000000       6.72680771       6.72680771        1
Zr       2.24226924       4.48453848       6.72680771        1
Ti       2.24226924       6.72680771       4.48453848        1
N        2.24226924       6.72680771       6.72680771        2
N        2.24226924       4.48453848       4.48453848        2
N        0.00000000       6.72680771       4.48453848        2
N        0.00000000       4.48453848       6.72680771        2
Nb       0.00000000       4.48453848       8.96907695        1
Nb       0.00000000       6.72680771      11.21134619        1
Zr       2.24226924       4.48453848      11.21134619        1
Ta       2.24226924       6.72680771       8.96907695        1
N        2.24226924       6.72680771      11.21134619        2
N        2.24226924       4.48453848       8.96907695        2
N        0.00000000       6.72680771       8.96907695        2
N        0.00000000       4.48453848      11.21134619        2
Hf       0.00000000       8.96907695       0.00000000        1
Hf       0.00000000      11.21134619       2.24226924        1
Ta       2.24226924       8.96907695       2.24226924        1
Nb       2.24226924      11.21134619       0.00000000        1
N        2.24226924      11.21134619       2.24226924        2
N        2.24226924       8.96907695       0.00000000        2
N        0.00000000      11.21134619       0.00000000        2
N        0.00000000       8.96907695       2.24226924        2
Hf       0.00000000       8.96907695       4.48453848        1
Hf       0.00000000      11.21134619       6.72680771        1
Hf       2.24226924       8.96907695       6.72680771        1
Ta       2.24226924      11.21134619       4.48453848        1
N        2.24226924      11.21134619       6.72680771        2
N        2.24226924       8.96907695       4.48453848        2
N        0.00000000      11.21134619       4.48453848        2
N        0.00000000       8.96907695       6.72680771        2
Hf       0.00000000       8.96907695       8.96907695        1
Ti       0.00000000      11.21134619      11.21134619        1
Nb       2.24226924       8.96907695      11.21134619        1
Zr       2.24226924      11.21134619       8.96907695        1
N        2.24226924      11.21134619      11.21134619        2
N        2.24226924       8.96907695       8.96907695        2
N        0.00000000      11.21134619       8.96907695        2
N        0.00000000       8.96907695      11.21134619        2
Nb       4.48453848       0.00000000       0.00000000        1
Zr       4.48453848       2.24226924       2.24226924        1
Nb       6.72680771       0.00000000       2.24226924        1
Nb       6.72680771       2.24226924       0.00000000        1
N        6.72680771       2.24226924       2.24226924        2
N        6.72680771       0.00000000       0.00000000        2
N        4.48453848       2.24226924       0.00000000        2
N        4.48453848       0.00000000       2.24226924        2
Ta       4.48453848       0.00000000       4.48453848        1
Nb       4.48453848       2.24226924       6.72680771        1
Nb       6.72680771       0.00000000       6.72680771        1
Zr       6.72680771       2.24226924       4.48453848        1
N        6.72680771       2.24226924       6.72680771        2
N        6.72680771       0.00000000       4.48453848        2
N        4.48453848       2.24226924       4.48453848        2
N        4.48453848       0.00000000       6.72680771        2
Hf       4.48453848       0.00000000       8.96907695        1
Nb       4.48453848       2.24226924      11.21134619        1
Zr       6.72680771       0.00000000      11.21134619        1
Ti       6.72680771       2.24226924       8.96907695        1
N        6.72680771       2.24226924      11.21134619        2
N        6.72680771       0.00000000       8.96907695        2
N        4.48453848       2.24226924       8.96907695        2
N        4.48453848       0.00000000      11.21134619        2
Ti       4.48453848       4.48453848       0.00000000        1
Zr       4.48453848       6.72680771       2.24226924        1
Ta       6.72680771       4.48453848       2.24226924        1
Ti       6.72680771       6.72680771       0.00000000        1
N        6.72680771       6.72680771       2.24226924        2
N        6.72680771       4.48453848       0.00000000        2
N        4.48453848       6.72680771       0.00000000        2
N        4.48453848       4.48453848       2.24226924        2
Zr       4.48453848       4.48453848       4.48453848        1
Ti       4.48453848       6.72680771       6.72680771        1
Ti       6.72680771       4.48453848       6.72680771        1
Hf       6.72680771       6.72680771       4.48453848        1
N        6.72680771       6.72680771       6.72680771        2
N        6.72680771       4.48453848       4.48453848        2
N        4.48453848       6.72680771       4.48453848        2
N        4.48453848       4.48453848       6.72680771        2
Hf       4.48453848       4.48453848       8.96907695        1
Ta       4.48453848       6.72680771      11.21134619        1
Nb       6.72680771       4.48453848      11.21134619        1
Zr       6.72680771       6.72680771       8.96907695        1
N        6.72680771       6.72680771      11.21134619        2
N        6.72680771       4.48453848       8.96907695        2
N        4.48453848       6.72680771       8.96907695        2
N        4.48453848       4.48453848      11.21134619        2
Nb       4.48453848       8.96907695       0.00000000        1
Ta       4.48453848      11.21134619       2.24226924        1
Ta       6.72680771       8.96907695       2.24226924        1
Zr       6.72680771      11.21134619       0.00000000        1
N        6.72680771      11.21134619       2.24226924        2
N        6.72680771       8.96907695       0.00000000        2
N        4.48453848      11.21134619       0.00000000        2
N        4.48453848       8.96907695       2.24226924        2
Hf       4.48453848       8.96907695       4.48453848        1
Zr       4.48453848      11.21134619       6.72680771        1
Hf       6.72680771       8.96907695       6.72680771        1
Nb       6.72680771      11.21134619       4.48453848        1
N        6.72680771      11.21134619       6.72680771        2
N        6.72680771       8.96907695       4.48453848        2
N        4.48453848      11.21134619       4.48453848        2
N        4.48453848       8.96907695       6.72680771        2
Ti       4.48453848       8.96907695       8.96907695        1
Zr       4.48453848      11.21134619      11.21134619        1
Zr       6.72680771       8.96907695      11.21134619        1
Ti       6.72680771      11.21134619       8.96907695        1
N        6.72680771      11.21134619      11.21134619        2
N        6.72680771       8.96907695       8.96907695        2
N        4.48453848      11.21134619       8.96907695        2
N        4.48453848       8.96907695      11.21134619        2
Hf       8.96907695       0.00000000       0.00000000        1
Ti       8.96907695       2.24226924       2.24226924        1
Nb      11.21134619       0.00000000       2.24226924        1
Ti      11.21134619       2.24226924       0.00000000        1
N       11.21134619       2.24226924       2.24226924        2
N       11.21134619       0.00000000       0.00000000        2
N        8.96907695       2.24226924       0.00000000        2
N        8.96907695       0.00000000       2.24226924        2
Zr       8.96907695       0.00000000       4.48453848        1
Ta       8.96907695       2.24226924       6.72680771        1
Ti      11.21134619       0.00000000       6.72680771        1
Hf      11.21134619       2.24226924       4.48453848        1
N       11.21134619       2.24226924       6.72680771        2
N       11.21134619       0.00000000       4.48453848        2
N        8.96907695       2.24226924       4.48453848        2
N        8.96907695       0.00000000       6.72680771        2
Hf       8.96907695       0.00000000       8.96907695        1
Hf       8.96907695       2.24226924      11.21134619        1
Ti      11.21134619       0.00000000      11.21134619        1
Ta      11.21134619       2.24226924       8.96907695        1
N       11.21134619       2.24226924      11.21134619        2
N       11.21134619       0.00000000       8.96907695        2
N        8.96907695       2.24226924       8.96907695        2
N        8.96907695       0.00000000      11.21134619        2
Hf       8.96907695       4.48453848       0.00000000        1
Ta       8.96907695       6.72680771       2.24226924        1
Zr      11.21134619       4.48453848       2.24226924        1
Ti      11.21134619       6.72680771       0.00000000        1
N       11.21134619       6.72680771       2.24226924        2
N       11.21134619       4.48453848       0.00000000        2
N        8.96907695       6.72680771       0.00000000        2
N        8.96907695       4.48453848       2.24226924        2
Ta       8.96907695       4.48453848       4.48453848        1
Zr       8.96907695       6.72680771       6.72680771        1
Zr      11.21134619       4.48453848       6.72680771        1
Ta      11.21134619       6.72680771       4.48453848        1
N       11.21134619       6.72680771       6.72680771        2
N       11.21134619       4.48453848       4.48453848        2
N        8.96907695       6.72680771       4.48453848        2
N        8.96907695       4.48453848       6.72680771        2
Nb       8.96907695       4.48453848       8.96907695        1
Ta       8.96907695       6.72680771      11.21134619        1
Ti      11.21134619       4.48453848      11.21134619        1
Ti      11.21134619       6.72680771       8.96907695        1
N       11.21134619       6.72680771      11.21134619        2
N       11.21134619       4.48453848       8.96907695        2
N        8.96907695       6.72680771       8.96907695        2
N        8.96907695       4.48453848      11.21134619        2
Zr       8.96907695       8.96907695       0.00000000        1
Ti       8.96907695      11.21134619       2.24226924        1
Nb      11.21134619       8.96907695       2.24226924        1
Ta      11.21134619      11.21134619       0.00000000        1
N       11.21134619      11.21134619       2.24226924        2
N       11.21134619       8.96907695       0.00000000        2
N        8.96907695      11.21134619       0.00000000        2
N        8.96907695       8.96907695       2.24226924        2
Ta       8.96907695       8.96907695       4.48453848        1
Ti       8.96907695      11.21134619       6.72680771        1
Ti      11.21134619       8.96907695       6.72680771        1
Zr      11.21134619      11.21134619       4.48453848        1
N       11.21134619      11.21134619       6.72680771        2
N       11.21134619       8.96907695       4.48453848        2
N        8.96907695      11.21134619       4.48453848        2
N        8.96907695       8.96907695       6.72680771        2
Ti       8.96907695       8.96907695       8.96907695        1
Ta       8.96907695      11.21134619      11.21134619        1
Hf      11.21134619       8.96907695      11.21134619        1
Nb      11.21134619      11.21134619       8.96907695        1
N       11.21134619      11.21134619      11.21134619        2
N       11.21134619       8.96907695       8.96907695        2
N        8.96907695      11.21134619       8.96907695        2
N        8.96907695       8.96907695      11.21134619        2
