216
Lattice="13.6596235905414 0.0 0.0 0.0 13.6596235905414 0.0 0.0 0.0 13.6596235905414" Properties=species:S:1:pos:R:3:tags:I:1 formal_charge=0 formal_spin=109 charge=0 spin=100 energy_eV=-2352.478701688928 energy_method=uma a_A=4.5532078635138005 supercell="_JSON [3, 3, 3]" calibration=cubic_hydrostatic pbc="T T T"
Hf       0.00000017       0.00000015       0.00000015        1
Hf       0.00000015       2.27660395       2.27660391        1
Hf       2.27660388      -0.00000001       2.27660399        1
Hf       2.27660390       2.27660387       0.00000005        1
N        2.27660390       2.27660384       2.27660387        2
N        2.27660390       0.00000005       0.00000010        2
N        0.00000004       2.27660386       0.00000006        2
N        0.00000015       0.00000002       2.27660393        2
Hf       0.00000017       0.00000001       4.55320775        1
Hf      -0.00000007       2.27660399       6.82981179        1
Hf       2.27660395       0.00000002       6.82981192        1
Hf       2.27660387       2.27660391       4.55320778        1
N        2.27660390       2.27660394       6.82981194        2
N        2.27660393      -0.00000006       4.55320778        2
N       -0.00000004       2.27660394       4.55320787        2
N        0.00000001       0.00000010       6.82981190        2
Hf       0.00000008       0.00000019       9.10641588        1
Hf      -0.00000001       2.27660393      11.38301952        1
Hf       2.27660395       0.00000006      11.38301970        1
Hf       2.27660398       2.27660401       9.10641565        1
N        2.27660394       2.27660394      11.38301969        2
N        2.27660394       0.00000010       9.10641564        2
N        0.00000005       2.27660396       9.10641571        2
N        0.00000008       0.00000014      11.38301960        2
Hf       0.00000001       4.55320792      -0.00000004        1
Hf       0.00000000       6.82981194       2.27660382        1
Hf       2.27660383       4.55320785       2.27660394        1
Hf       2.27660377       6.82981197      -0.00000001        1
N        2.27660393       6.82981181       2.27660394        2
N        2.27660396       4.55320777       0.00000010        2
N        0.00000015       6.82981194       0.00000004        2
N        0.00000012       4.55320778       2.27660392        2
Hf       0.00000006       4.55320788       4.55320777        1
Hf      -0.00000009       6.82981191       6.82981178        1
Hf       2.27660385       4.55320784       6.82981178        1
Hf       2.27660390       6.82981189       4.55320782        1
N        2.27660389       6.82981190       6.82981194        2
N        2.27660390       4.55320776       4.55320786        2
N        0.00000003       6.82981189       4.55320789        2
N        0.00000022       4.55320786       6.82981185        2
Hf       0.00000019       4.55320783       9.10641565        1
Hf       0.00000004       6.82981188      11.38301947        1
Hf       2.27660391       4.55320802      11.38301956        1
Hf       2.27660384       6.82981180       9.10641554        1
N        2.27660390       6.82981181      11.38301969        2
N        2.27660397       4.55320789       9.10641581        2
N        0.00000008       6.82981187       9.10641585        2
N        0.00000006       4.55320786      11.38301961        2
Hf       0.00000013       9.10641557       0.00000006        1
Hf       0.00000012      11.38301968       2.27660398        1
Hf       2.27660395       9.10641572       2.27660391        1
Hf       2.27660399      11.38301949       0.00000013        1
N        2.27660404      11.38301973       2.27660391        2
N        2.27660394       9.10641580       0.00000005        2
N        0.00000015      11.38301972       0.00000005        2
N        0.00000005       9.10641562       2.27660399        2
Hf       0.00000004       9.10641575       4.55320778        1
Hf       0.00000015      11.38301976       6.82981185        1
Hf       2.27660391       9.10641539       6.82981176        1
Hf       2.27660396      11.38301981       4.55320784        1
N        2.27660396      11.38301975       6.82981180        2
N        2.27660390       9.10641560       4.55320790        2
N        0.00000008      11.38301968       4.55320787        2
N        0.00000008       9.10641558       6.82981178        2
Hf       0.00000006       9.10641562       9.10641577        1
Hf       0.00000019      11.38301958      11.38301974        1
Hf       2.27660385       9.10641574      11.38301961        1
Hf       2.27660401      11.38301947       9.10641565        1
N        2.27660397      11.38301962      11.38301953        2
N        2.27660392       9.10641577       9.10641577        2
N        0.00000009      11.38301961       9.10641566        2
N        0.00000002       9.10641563      11.38301970        2
Hf       4.55320779       0.00000011       0.00000015        1
Hf       4.55320784       2.27660391       2.27660397        1
Hf       6.82981186       0.00000015       2.27660385        1
Hf       6.82981174       2.27660388      -0.00000002        1
N        6.82981187       2.27660389       2.27660388        2
N        6.82981194       0.00000002       0.00000001        2
N        4.55320790       2.27660394      -0.00000003        2
N        4.55320789      -0.00000001       2.27660391        2
Hf       4.55320783       0.00000002       4.55320778        1
Hf       4.55320781       2.27660380       6.82981194        1
Hf       6.82981189       0.00000011       6.82981187        1
Hf       6.82981196       2.27660391       4.55320782        1
N        6.82981181       2.27660397       6.82981183        2
N        6.82981174       0.00000002       4.55320790        2
N        4.55320795       2.27660390       4.55320786        2
N        4.55320778       0.00000019       6.82981184        2
Hf       4.55320782      -0.00000005       9.10641577        1
Hf       4.55320785       2.27660387      11.38301980        1
Hf       6.82981201       0.00000001      11.38301973        1
Hf       6.82981185       2.27660398       9.10641540        1
N        6.82981172       2.27660393      11.38301974        2
N        6.82981192       0.00000006       9.10641570        2
N        4.55320787       2.27660396       9.10641564        2
N        4.55320786       0.00000012      11.38301950        2
Hf       4.55320778       4.55320777       0.00000009        1
Hf       4.55320783       6.82981195       2.27660388        1
Hf       6.82981193       4.55320773       2.27660389        1
Hf       6.82981189       6.82981191       0.00000004        1
N        6.82981186       6.82981189       2.27660385        2
N        6.82981192       4.55320789       0.00000008        2
N        4.55320787       6.82981184       0.00000007        2
N        4.55320773       4.55320782       2.27660398        2
Hf       4.55320775       4.55320775       4.55320778        1
Hf       4.55320775       6.82981185       6.82981189        1
Hf       6.82981189       4.55320778       6.82981192        1
Hf       6.82981180       6.82981196       4.55320784        1
N        6.82981179       6.82981186       6.82981189        2
N        6.82981195       4.55320786       4.55320783        2
N        4.55320784       6.82981173       4.55320784        2
N        4.55320776       4.55320780       6.82981195        2
Hf       4.55320782       4.55320773       9.10641554        1
Hf       4.55320780       6.82981197      11.38301963        1
Hf       6.82981187       4.55320787      11.38301944        1
Hf       6.82981199       6.82981186       9.10641562        1
N        6.82981197       6.82981181      11.38301966        2
N        6.82981187       4.55320782       9.10641567        2
N        4.55320785       6.82981185       9.10641566        2
N        4.55320781       4.55320784      11.38301956        2
Hf       4.55320779       9.10641574       0.00000006        1
Hf       4.55320782      11.38301976       2.27660398        1
Hf       6.82981200       9.10641554       2.27660395        1
Hf       6.82981191      11.38301975      -0.00000000        1
N        6.82981187      11.38301951       2.27660390        2
N        6.82981189       9.10641564      -0.00000001        2
N        4.55320780      11.38301956       0.00000004        2
N        4.55320781       9.10641568       2.27660394        2
Hf       4.55320791       9.10641579       4.55320786        1
Hf       4.55320783      11.38301957       6.82981191        1
Hf       6.82981193       9.10641552       6.82981184        1
Hf       6.82981192      11.38301970       4.55320798        1
N        6.82981184      11.38301966       6.82981177        2
N        6.82981187       9.10641550       4.55320786        2
N        4.55320788      11.38301975       4.55320783        2
N        4.55320787       9.10641579       6.82981183        2
Hf       4.55320786       9.10641567       9.10641574        1
Hf       4.55320783      11.38301958      11.38301976        1
Hf       6.82981188       9.10641570      11.38301974        1
Hf       6.82981203      11.38301971       9.10641586        1
N        6.82981195      11.38301954      11.38301957        2
N        6.82981178       9.10641557       9.10641563        2
N        4.55320782      11.38301967       9.10641568        2
N        4.55320787       9.10641567      11.38301953        2
Hf       9.10641575       0.00000011      -0.00000001        1
Hf       9.10641566       2.27660399       2.27660392        1
Hf      11.38301953       0.00000017       2.27660392        1
Hf      11.38301966       2.27660396       0.00000008        1
N       11.38301954       2.27660397       2.27660383        2
N       11.38301950       0.00000012       0.00000006        2
N        9.10641558       2.27660388       0.00000016        2
N        9.10641581       0.00000009       2.27660391        2
Hf       9.10641580       0.00000005       4.55320778        1
Hf       9.10641556       2.27660392       6.82981191        1
Hf      11.38301967       0.00000012       6.82981190        1
Hf      11.38301975       2.27660398       4.55320776        1
N       11.38301972       2.27660395       6.82981187        2
N       11.38301956       0.00000012       4.55320775        2
N        9.10641552       2.27660392       4.55320779        2
N        9.10641577       0.00000012       6.82981189        2
Hf       9.10641562      -0.00000005       9.10641550        1
Hf       9.10641579       2.27660395      11.38301953        1
Hf      11.38301972       0.00000003      11.38301966        1
Hf      11.38301954       2.27660392       9.10641590        1
N       11.38301966       2.27660394      11.38301951        2
N       11.38301963       0.00000015       9.10641587        2
N        9.10641565       2.27660397       9.10641574        2
N        9.10641547       0.00000000      11.38301973        2
Hf       9.10641537       4.55320794       0.00000013        1
Hf       9.10641567       6.82981189       2.27660388        1
Hf      11.38301954       4.55320785       2.27660393        1
Hf      11.38301969       6.82981194       0.00000015        1
N       11.38301966       6.82981183       2.27660390        2
N       11.38301966       4.55320786       0.00000002        2
N        9.10641553       6.82981186      -0.00000002        2
N        9.10641565       4.55320777       2.27660392        2
Hf       9.10641562       4.55320792       4.55320768        1
Hf       9.10641569       6.82981185       6.82981190        1
Hf      11.38301946       4.55320793       6.82981192        1
Hf      11.38301970       6.82981184       4.55320778        1
N       11.38301968       6.82981195       6.82981191        2
N       11.38301962       4.55320783       4.55320780        2
N        9.10641574       6.82981180       4.55320789        2
N        9.10641567       4.55320787       6.82981192        2
Hf       9.10641554       4.55320778       9.10641578        1
Hf       9.10641539       6.82981183      11.38301979        1
Hf      11.38301953       4.55320788      11.38301951        1
Hf      11.38301970       6.82981199       9.10641573        1
N       11.38301973       6.82981190      11.38301956        2
N       11.38301953       4.55320790       9.10641555        2
N        9.10641553       6.82981183       9.10641573        2
N        9.10641586       4.55320778      11.38301953        2
Hf       9.10641563       9.10641581       0.00000009        1
Hf       9.10641570      11.38301977       2.27660392        1
Hf      11.38301961       9.10641579       2.27660386        1
Hf      11.38301956      11.38301958       0.00000008        1
N       11.38301958      11.38301953       2.27660406        2
N       11.38301971       9.10641583       0.00000024        2
N        9.10641553      11.38301963       0.00000005        2
N        9.10641560       9.10641554       2.27660397        2
Hf       9.10641567       9.10641570       4.55320793        1
Hf       9.10641591      11.38301955       6.82981196        1
Hf      11.38301951       9.10641576       6.82981203        1
Hf      11.38301976      11.38301953       4.55320784        1
N       11.38301946      11.38301948       6.82981196        2
N       11.38301962       9.10641594       4.55320781        2
N        9.10641554      11.38301970       4.55320778        2
N        9.10641566       9.10641576       6.82981183        2
Hf       9.10641578       9.10641573       9.10641587        1
Hf       9.10641579      11.38301976      11.38301953        1
Hf      11.38301952       9.10641558      11.38301948        1
Hf      11.38301956      11.38301947       9.10641575        1
N       11.38301954      11.38301978      11.38301951        2
N       11.38301964       9.10641558       9.10641566        2
N        9.10641567      11.38301968       9.10641578        2
N        9.10641567       9.10641569      11.38301947        2
