216
Lattice="13.500742208520435 0.0 0.0 0.0 13.500742208520435 0.0 0.0 0.0 13.500742208520435" Properties=species:S:1:pos:R:3:tags:I:1 formal_charge=0 formal_spin=217 charge=0 spin=100 energy_eV=-2145.8232826730787 energy_method=uma a_A=4.500247402840145 supercell="_JSON [3, 3, 3]" calibration=cubic_hydrostatic pbc="T T T"
Nb       0.00008585       0.00006559      -0.00001629        1
Nb       0.00011172       2.25012443       2.25021251        1
Nb       2.25005752      -0.00004161       2.25018613        1
Nb       2.25004565       2.25011463      -0.00009342        1
N        2.25019315       2.25007135       2.25002803        2
N        2.25016971      -0.00001217       0.00004877        2
N       -0.00008587       2.25017124       0.00006539        2
N       -0.00007480      -0.00000790       2.25008966        2
Nb       0.00003301      -0.00005303       4.50020552        1
Nb       0.00002524       2.25014729       6.75048162        1
Nb       2.25015556      -0.00006423       6.75043852        1
Nb       2.25009431       2.25024338       4.50011667        1
N        2.25012331       2.25005973       6.75026633        2
N        2.25012771       0.00009187       4.50031167        2
N       -0.00004882       2.25006819       4.50034057        2
N       -0.00000249       0.00002069       6.75033008        2
Nb       0.00000929       0.00001300       9.00046501        1
Nb       0.00007215       2.25009102      11.25068754        1
Nb       2.25010787      -0.00001150      11.25066587        1
Nb       2.25010459       2.25014818       9.00038931        1
N        2.25016545       2.25011557      11.25053925        2
N        2.25010748       0.00002588       9.00054813        2
N       -0.00003881       2.25013331       9.00057182        2
N       -0.00002904      -0.00002358      11.25059547        2
Nb       0.00002828       4.50029319      -0.00003997        1
Nb       0.00001292       6.75040826       2.25011657        1
Nb       2.25009746       4.50015814       2.25020485        1
Nb       2.25019347       6.75038685      -0.00001132        1
N        2.25009726       6.75029251       2.25010184        2
N        2.25012925       4.50025457       0.00005512        2
N        0.00003901       6.75040115      -0.00000567        2
N       -0.00004394       4.50026932       2.25006810        2
Nb       0.00003447       4.50016129       4.50016374        1
Nb      -0.00000996       6.75042719       6.75037159        1
Nb       2.25014726       4.50015010       6.75047599        1
Nb       2.25013322       6.75052575       4.50021809        1
N        2.25008567       6.75027485       6.75034193        2
N        2.25013535       4.50036545       4.50033149        2
N       -0.00000545       6.75029355       4.50025515        2
N       -0.00001155       4.50028558       6.75030070        2
Nb       0.00001912       4.50024974       9.00042874        1
Nb      -0.00005735       6.75037006      11.25060136        1
Nb       2.25013431       4.50022069      11.25068305        1
Nb       2.25017708       6.75043872       9.00047125        1
N        2.25004417       6.75033512      11.25060371        2
N        2.25012075       4.50028721       9.00056555        2
N        0.00002921       6.75035590       9.00049220        2
N       -0.00001156       4.50023102      11.25057774        2
Nb      -0.00011471       9.00053796       0.00004060        1
Nb       0.00000021      11.25061401       2.25012143        1
Nb       2.25021100       9.00041802       2.25012491        1
Nb       2.25019550      11.25060744      -0.00002367        1
N        2.25008960      11.25057250       2.25009817        2
N        2.25000203       9.00050228      -0.00000471        2
N        0.00003594      11.25066517      -0.00001242        2
N        0.00005216       9.00051178       2.25014615        2
Nb      -0.00005128       9.00041030       4.50027307        1
Nb      -0.00006515      11.25065296       6.75037445        1
Nb       2.25023185       9.00038488       6.75037847        1
Nb       2.25019346      11.25073692       4.50020552        1
N        2.25004117      11.25054526       6.75034161        2
N        2.25005484       9.00061281       4.50025513        2
N        0.00003131      11.25056599       4.50025195        2
N        0.00006349       9.00053852       6.75039441        2
Nb      -0.00010641       9.00047418       9.00053409        1
Nb      -0.00008629      11.25061039      11.25059847        1
Nb       2.25030253       9.00044163      11.25060988        1
Nb       2.25024110      11.25066938       9.00046773        1
N        2.25002536      11.25059328      11.25060412        2
N        2.25000487       9.00055334       9.00049324        2
N        0.00007506      11.25061383       9.00048568        2
N        0.00012456       9.00049217      11.25065283        2
Nb       4.50028742       0.00001907      -0.00006046        1
Nb       4.50031917       2.25016881       2.25023830        1
Nb       6.75030455       0.00004068       2.25017826        1
Nb       6.75030013       2.25007253      -0.00008943        1
N        6.75044124       2.25014322       2.25003164        2
N        6.75040980      -0.00005399       0.00005213        2
N        4.50019294       2.25013169       0.00008415        2
N        4.50020947       0.00002654       2.25006067        2
Nb       4.50024762      -0.00008269       4.50017499        1
Nb       4.50023239       2.25016617       6.75048755        1
Nb       6.75037219       0.00002698       6.75043208        1
Nb       6.75032418       2.25014958       4.50013534        1
N        6.75038900       2.25013094       6.75027639        2
N        6.75038800       0.00000918       4.50030901        2
N        4.50022371       2.25004477       4.50035049        2
N        4.50027457       0.00003583       6.75030716        2
Nb       4.50023254      -0.00000650       9.00043432        1
Nb       4.50028154       2.25012885      11.25070792        1
Nb       6.75036232       0.00002190      11.25066957        1
Nb       6.75032369       2.25009051       9.00039835        1
N        6.75040934       2.25014261      11.25054162        2
N        6.75037189      -0.00003162       9.00054856        2
N        4.50023121       2.25011490       9.00058195        2
N        4.50024940       0.00000620      11.25056500        2
Nb       4.50022776       4.50024723      -0.00007274        1
Nb       4.50019687       6.75044443       2.25016413        1
Nb       6.75035910       4.50025571       2.25020080        1
Nb       6.75046087       6.75031565      -0.00001504        1
N        6.75032543       6.75038204       2.25009650        2
N        6.75036563       4.50020634       0.00005725        2
N        4.50033051       6.75036575       0.00002791        2
N        4.50024074       4.50030297       2.25004949        2
Nb       4.50024388       4.50013245       4.50014532        1
Nb       4.50018478       6.75046291       6.75040423        1
Nb       6.75038345       4.50023473       6.75045462        1
Nb       6.75040614       6.75041521       4.50022590        1
N        6.75032834       6.75035328       6.75035276        2
N        6.75037932       4.50028015       4.50032471        2
N        4.50028163       6.75026727       4.50028445        2
N        4.50026677       4.50030899       6.75029036        2
Nb       4.50023786       4.50022387       9.00041564        1
Nb       4.50013110       6.75040835      11.25064000        1
Nb       6.75040035       4.50025437      11.25067758        1
Nb       6.75042376       6.75036780       9.00049201        1
N        6.75027502       6.75037936      11.25060826        2
N        6.75037607       4.50023496       9.00055420        2
N        4.50031223       6.75033162       9.00052004        2
N        4.50026861       4.50026343      11.25055970        2
Nb       4.50007501       9.00049845      -0.00000730        1
Nb       4.50018233      11.25065160       2.25017013        1
Nb       6.75048594       9.00052728       2.25011770        1
Nb       6.75046279      11.25054805      -0.00001744        1
N        6.75032540      11.25065292       2.25010079        2
N        6.75023349       9.00044216      -0.00000727        2
N        4.50032655      11.25062938       0.00002589        2
N        4.50034688       9.00054234       2.25011045        2
Nb       4.50014259       9.00037801       4.50022780        1
Nb       4.50012562      11.25067419       6.75041442        1
Nb       6.75048648       9.00048440       6.75035393        1
Nb       6.75044638      11.25063062       4.50021873        1
N        6.75028941      11.25062723       6.75035004        2
N        6.75028849       9.00051847       4.50024734        2
N        4.50031752      11.25054009       4.50028505        2
N        4.50035175       9.00056437       6.75036217        2
Nb       4.50009068       9.00044909       9.00049511        1
Nb       4.50010184      11.25064442      11.25064799        1
Nb       6.75057555       9.00050250      11.25059450        1
Nb       6.75048818      11.25058821       9.00047913        1
N        6.75025792      11.25063723      11.25060859        2
N        6.75024978       9.00048603       9.00047809        2
N        4.50035848      11.25059457       9.00052046        2
N        4.50041693       9.00052292      11.25061874        2
Nb       9.00057169       0.00010721      -0.00003711        1
Nb       9.00060850       2.25005329       2.25022726        1
Nb      11.25050146       0.00006383       2.25014187        1
Nb      11.25050689       2.25003506      -0.00006589        1
N       11.25072005       2.25016424       2.25005507        2
N       11.25069145      -0.00008367       0.00001449        2
N        9.00041504       2.25020891       0.00006942        2
N        9.00042017      -0.00006844       2.25007457        2
Nb       9.00054984       0.00001897       4.50018329        1
Nb       9.00054805       2.25008385       6.75047881        1
Nb      11.25057918       0.00001761       6.75038877        1
Nb      11.25054459       2.25014717       4.50015838        1
N       11.25066398       2.25013137       6.75029956        2
N       11.25066397       0.00000391       4.50027356        2
N        9.00043502       2.25013088       4.50034291        2
N        9.00047375      -0.00003664       6.75032055        2
Nb       9.00053572       0.00007154       9.00045587        1
Nb       9.00055731       2.25006181      11.25068653        1
Nb      11.25057038       0.00005271      11.25062500        1
Nb      11.25054591       2.25008218       9.00042679        1
N       11.25068565       2.25017084      11.25056658        2
N       11.25064270      -0.00004029       9.00050990        2
N        9.00043918       2.25017696       9.00056724        2
N        9.00046957      -0.00005490      11.25058635        2
Nb       9.00051090       4.50034782      -0.00005270        1
Nb       9.00047862       6.75031056       2.25014877        1
Nb      11.25055674       4.50027647       2.25018305        1
Nb      11.25064918       6.75028772       0.00001509        1
N       11.25061863       6.75039750       2.25012763        2
N       11.25064967       4.50017743       0.00003474        2
N        9.00055048       6.75045546       0.00000686        2
N        9.00046068       4.50019813       2.25005985        2
Nb       9.00052213       4.50024054       4.50015299        1
Nb       9.00047860       6.75035582       6.75037741        1
Nb      11.25058877       4.50024314       6.75043062        1
Nb      11.25060026       6.75040675       4.50025912        1
N       11.25061341       6.75036592       6.75038477        2
N       11.25065806       4.50027349       4.50030339        2
N        9.00050450       6.75036766       4.50026821        2
N        9.00047657       4.50022950       6.75030622        2
Nb       9.00052953       4.50030230       9.00044028        1
Nb       9.00040764       6.75031947      11.25060415        1
Nb      11.25060447       4.50028942      11.25065207        1
Nb      11.25062629       6.75034613       9.00052983        1
N       11.25056445       6.75040796      11.25063956        2
N       11.25064971       4.50022103       9.00053198        2
N        9.00052581       6.75040646       9.00048977        2
N        9.00049262       4.50019795      11.25058033        2
Nb       9.00036254       9.00060481       0.00002232        1
Nb       9.00047685      11.25053215       2.25014904        1
Nb      11.25066927       9.00053996       2.25008416        1
Nb      11.25065157      11.25051860       0.00002762        1
N       11.25061911      11.25066919       2.25014098        2
N       11.25052542       9.00041811      -0.00004191        2
N        9.00054547      11.25071126      -0.00000058        2
N        9.00056538       9.00043432       2.25013004        2
Nb       9.00042160       9.00050038       4.50025092        1
Nb       9.00042764      11.25057906       6.75038761        1
Nb      11.25067847       9.00050024       6.75031139        1
Nb      11.25064345      11.25062354       4.50026218        1
N       11.25057600      11.25063086       6.75039240        2
N       11.25057727       9.00050989       4.50021130        2
N        9.00052908      11.25063476       4.50026550        2
N        9.00056421       9.00047552       6.75039070        2
Nb       9.00038954       9.00054171       9.00053616        1
Nb       9.00038102      11.25056246      11.25060728        1
Nb      11.25076107       9.00053577      11.25055624        1
Nb      11.25068840      11.25057519       9.00053181        1
N       11.25054781      11.25066339      11.25065183        2
N       11.25053640       9.00047026       9.00044134        2
N        9.00056861      11.25066718       9.00048929        2
N        9.00063537       9.00044748      11.25065060        2
