216
Lattice="13.401714050211217 0.0 0.0 0.0 13.401714050211217 0.0 0.0 0.0 13.401714050211217" Properties=species:S:1:pos:R:3:tags:I:1 formal_charge=0 formal_spin=217 charge=0 spin=100 energy_eV=-2331.097215667807 energy_method=uma a_A=4.467238016737072 supercell="_JSON [3, 3, 3]" calibration=cubic_hydrostatic pbc="T T T"
Ta       0.00003190       0.00033023       0.00045981        1
Ta      -0.00004452       2.23333608       2.23317596        1
Ta       2.23363099       0.00023105       2.23312414        1
Ta       2.23358070       2.23333002       0.00046222        1
N        2.23358540       2.23386744       2.23409351        2
N        2.23366081      -0.00028759      -0.00049984        2
N       -0.00001899       2.23395540      -0.00045397        2
N        0.00002733      -0.00027330       2.23409177        2
Ta      -0.00010209       0.00014130       4.46771362        1
Ta      -0.00015575       2.23353190       6.70040332        1
Ta       2.23373477       0.00004349       6.70035143        1
Ta       2.23374170       2.23349776       4.46770572        1
N        2.23347680       2.23367024       6.70133578        2
N        2.23352568      -0.00011501       4.46672605        2
N        0.00012568       2.23377669       4.46678318        2
N        0.00012888      -0.00008465       6.70134239        2
Ta      -0.00006407       0.00013512       8.93495203        1
Ta      -0.00001668       2.23334768      11.16764051        1
Ta       2.23359976       0.00021554      11.16760920        1
Ta       2.23369184       2.23352957       8.93494254        1
N        2.23362906       2.23383778      11.16856994        2
N        2.23355624      -0.00008861       8.93396782        2
N        0.00009615       2.23376393       8.93401257        2
N       -0.00000046      -0.00027328      11.16857037        2
Ta       0.00002806       4.46757951       0.00044310        1
Ta      -0.00003585       6.70056685       2.23318264        1
Ta       2.23365789       4.46748870       2.23318647        1
Ta       2.23358384       6.70055926       0.00043854        1
N        2.23357681       6.70110783       2.23406191        2
N        2.23364844       4.46693869      -0.00044910        2
N       -0.00002022       6.70120400      -0.00045142        2
N        0.00004522       4.46694333       2.23406038        2
Ta      -0.00013640       4.46740803       4.46766645        1
Ta      -0.00016013       6.70076588       6.70042471        1
Ta       2.23377140       4.46728517       6.70042312        1
Ta       2.23376428       6.70073513       4.46766589        1
N        2.23345807       6.70090777       6.70129923        2
N        2.23348281       4.46710875       4.46679460        2
N        0.00014215       6.70102118       4.46680033        2
N        0.00015995       4.46714357       6.70130087        2
Ta      -0.00009079       4.46737832       8.93492147        1
Ta      -0.00001284       6.70058126      11.16764560        1
Ta       2.23361032       4.46745700      11.16765281        1
Ta       2.23369942       6.70077720       8.93491288        1
N        2.23362579       6.70107598      11.16854692        2
N        2.23353010       4.46714176       8.93402604        2
N        0.00010314       6.70100100       8.93402594        2
N        0.00000769       4.46696479      11.16854933        2
Ta       0.00002116       8.93482169       0.00045978        1
Ta      -0.00002355      11.16783450       2.23314710        1
Ta       2.23364469       8.93470457       2.23316385        1
Ta       2.23357909      11.16780930       0.00048971        1
N        2.23359731      11.16832909       2.23412333        2
N        2.23365016       8.93418121      -0.00047321        2
N       -0.00002080      11.16843306      -0.00047898        2
N        0.00004208       8.93419580       2.23407682        2
Ta      -0.00014230       8.93462641       4.46768282        1
Ta      -0.00013272      11.16801439       6.70037380        1
Ta       2.23376790       8.93451693       6.70039877        1
Ta       2.23372075      11.16798742       4.46773772        1
N        2.23349185      11.16813891       6.70136949        2
N        2.23348861       8.93435849       4.46677170        2
N        0.00010952      11.16823825       4.46675359        2
N        0.00016192       8.93438854       6.70131609        2
Ta      -0.00009303       8.93460880       8.93493703        1
Ta      -0.00000722      11.16781860      11.16761798        1
Ta       2.23360826       8.93468800      11.16762663        1
Ta       2.23367670      11.16802245       8.93497554        1
N        2.23362700      11.16830842      11.16860069        2
N        2.23353491       8.93439174       8.93400040        2
N        0.00007921      11.16823592       8.93398736        2
N        0.00001291       8.93419924      11.16856460        2
Ta       4.46728587       0.00025930       0.00045444        1
Ta       4.46721690       2.23338880       2.23318812        1
Ta       6.70087479       0.00024496       2.23323418        1
Ta       6.70082687       2.23333191       0.00035665        1
N        6.70082307       2.23387436       2.23398498        2
N        6.70088502      -0.00029448      -0.00038872        2
N        4.46720008       2.23389217      -0.00043512        2
N        4.46725478      -0.00023073       2.23409034        2
Ta       4.46714278       0.00011249       4.46770936        1
Ta       4.46709801       2.23357422       6.70042198        1
Ta       6.70099744       0.00008173       6.70046419        1
Ta       6.70097506       2.23346658       4.46759979        1
N        6.70069971       2.23371038       6.70122752        2
N        6.70075597      -0.00014660       4.46684113        2
N        4.46735158       2.23374639       4.46679527        2
N        4.46736432      -0.00004694       6.70133729        2
Ta       4.46717336       0.00006436       8.93494060        1
Ta       4.46725351       2.23342092      11.16767057        1
Ta       6.70086486       0.00023778      11.16771399        1
Ta       6.70095654       2.23349002       8.93483852        1
N        6.70084941       2.23385886      11.16846225        2
N        6.70076584      -0.00012649       8.93408017        2
N        4.46732193       2.23370643       8.93403589        2
N        4.46722561      -0.00019686      11.16856307        2
Ta       4.46726523       4.46751571       0.00039416        1
Ta       4.46719179       6.70061983       2.23321962        1
Ta       6.70090490       4.46749584       2.23328515        1
Ta       6.70085232       6.70054517       0.00034867        1
N        6.70079597       6.70112071       2.23397399        2
N        6.70087201       4.46693645      -0.00034707        2
N        4.46721705       6.70114490      -0.00040878        2
N        4.46728511       4.46699230       2.23402332        2
Ta       4.46709189       4.46736819       4.46763407        1
Ta       4.46706805       6.70080447       6.70045487        1
Ta       6.70103605       4.46733024       6.70051625        1
Ta       6.70101816       6.70069729       4.46758761        1
N        6.70067020       6.70095080       6.70121536        2
N        6.70071262       4.46707885       4.46689247        2
N        4.46738782       6.70099034       4.46682954        2
N        4.46740290       4.46717980       6.70126608        2
Ta       4.46714550       4.46732374       8.93487487        1
Ta       4.46724403       6.70064937      11.16769554        1
Ta       6.70087216       4.46748224      11.16775109        1
Ta       6.70097613       6.70072996       8.93482860        1
N        6.70083531       6.70110458      11.16845619        2
N        6.70074158       4.46710109       8.93412331        2
N        4.46733819       6.70094641       8.93406438        2
N        4.46723375       4.46702952      11.16850126        2
Ta       4.46726582       8.93475858       0.00042975        1
Ta       4.46721869      11.16787745       2.23315942        1
Ta       6.70091129       8.93472854       2.23325145        1
Ta       6.70084607      11.16779223       0.00038731        1
N        6.70081792      11.16834838       2.23401543        2
N        6.70085842       8.93416530      -0.00037974        2
N        4.46720970      11.16836878      -0.00046954        2
N        4.46727903       8.93423858       2.23405462        2
Ta       4.46709962       8.93459773       4.46766415        1
Ta       4.46710527      11.16805715       6.70038592        1
Ta       6.70103920       8.93456230       6.70048523        1
Ta       6.70097584      11.16795157       4.46762899        1
N        6.70070403      11.16817941       6.70126062        2
N        6.70070722       8.93432348       4.46686160        2
N        4.46734285      11.16821453       4.46676220        2
N        4.46739984       8.93442533       6.70129821        2
Ta       4.46715010       8.93454229       8.93491129        1
Ta       4.46723887      11.16790289      11.16763189        1
Ta       6.70088805       8.93472395      11.16771887        1
Ta       6.70095785      11.16798166       8.93487238        1
N        6.70083366      11.16833667      11.16849493        2
N        6.70073661       8.93434938       8.93409209        2
N        4.46731716      11.16816964       8.93399773        2
N        4.46723883       8.93427195      11.16853808        2
Ta       8.93449328       0.00034456       0.00033141        1
Ta       8.93443601       2.23333270       2.23330504        1
Ta      11.16812420       0.00028827       2.23324002        1
Ta      11.16809138       2.23326979       0.00037101        1
N       11.16804560       2.23392562       2.23399501        2
N       11.16810977      -0.00036486      -0.00039061        2
N        8.93446617       2.23396157      -0.00033377        2
N        8.93451006      -0.00028804       2.23396205        2
Ta       8.93436782       0.00017243       4.46757499        1
Ta       8.93430421       2.23349720       6.70053552        1
Ta      11.16823778       0.00011337       6.70045823        1
Ta      11.16823223       2.23343845       4.46760567        1
N       11.16792811       2.23374558       6.70124545        2
N       11.16798686      -0.00017630       4.46684039        2
N        8.93460304       2.23380113       4.46691030        2
N        8.93462570      -0.00012218       6.70120893        2
Ta       8.93437682       0.00017591       8.93481692        1
Ta       8.93444158       2.23332302      11.16776496        1
Ta      11.16811827       0.00031238      11.16770915        1
Ta      11.16821193       2.23344090       8.93486329        1
N       11.16806581       2.23392769      11.16848615        2
N       11.16800157      -0.00018819       8.93407053        2
N        8.93459506       2.23380242       8.93413565        2
N        8.93449920      -0.00030042      11.16844482        2
Ta       8.93448529       4.46757744       0.00032490        1
Ta       8.93441896       6.70056495       2.23329529        1
Ta      11.16813718       4.46754768       2.23325238        1
Ta      11.16808886       6.70048617       0.00038859        1
N       11.16804092       6.70117527       2.23400588        2
N       11.16810584       4.46687261      -0.00038970        2
N        8.93448091       6.70121220      -0.00034754        2
N        8.93452913       4.46694085       2.23394335        2
Ta       8.93433192       4.46742568       4.46754074        1
Ta       8.93428390       6.70073678       6.70053175        1
Ta      11.16826251       4.46736153       6.70048251        1
Ta      11.16824580       6.70066188       4.46761031        1
N       11.16791384       6.70098802       6.70124641        2
N       11.16795527       4.46704213       4.46686112        2
N        8.93463400       6.70104483       4.46690583        2
N        8.93465648       4.46710938       6.70118609        2
Ta       8.93435257       4.46741345       8.93480679        1
Ta       8.93443013       6.70056111      11.16775102        1
Ta      11.16812416       4.46753934      11.16770402        1
Ta      11.16821833       6.70067991       8.93486562        1
N       11.16806081       6.70117157      11.16849901        2
N       11.16797756       4.46705006       8.93407961        2
N        8.93461122       6.70103615       8.93412736        2
N        8.93450437       4.46694242      11.16843867        2
Ta       8.93446040       8.93483717       0.00034458        1
Ta       8.93443099      11.16781144       2.23328016        1
Ta      11.16815057       8.93477823       2.23323796        1
Ta      11.16809162      11.16772327       0.00039059        1
N       11.16805065      11.16839720       2.23401928        2
N       11.16809087       8.93409681      -0.00040112        2
N        8.93447898      11.16845149      -0.00035624        2
N        8.93454188       8.93418043       2.23396427        2
Ta       8.93431310       8.93465371       4.46756402        1
Ta       8.93431133      11.16797775       6.70050991        1
Ta      11.16827882       8.93459746       6.70047208        1
Ta      11.16821904      11.16792778       4.46763240        1
N       11.16794132      11.16821672       6.70126921        2
N       11.16794380       8.93429007       4.46684769        2
N        8.93460069      11.16826941       4.46688409        2
N        8.93466686       8.93435366       6.70120424        2
Ta       8.93433964       8.93464085       8.93482237        1
Ta       8.93442966      11.16778862      11.16774429        1
Ta      11.16814422       8.93479669      11.16769496        1
Ta      11.16819141      11.16791785       8.93488181        1
N       11.16806396      11.16841587      11.16850447        2
N       11.16797044       8.93428831       8.93407072        2
N        8.93458936      11.16827328       8.93411277        2
N        8.93452310       8.93417225      11.16845551        2
