216
Lattice="12.828888564354207 0.0 0.0 0.0 12.828888564354207 0.0 0.0 0.0 12.828888564354207" Properties=species:S:1:pos:R:3:tags:I:1 formal_charge=0 formal_spin=109 charge=0 spin=100 energy_eV=-2088.297683032887 energy_method=uma a_A=4.276296188118069 supercell="_JSON [3, 3, 3]" calibration=cubic_hydrostatic pbc="T T T"
Ti       0.00000190       0.00000034       0.00000071        1
Ti       0.00000346       2.13814946       2.13814991        1
Ti       2.13814866       0.00000293       2.13814922        1
Ti       2.13815062       2.13814897       0.00000057        1
N        2.13814896       2.13814905       2.13815020        2
N        2.13814866      -0.00000060       0.00000209        2
N       -0.00000001       2.13815004       0.00000201        2
N        0.00000181       0.00000173       2.13814988        2
Ti       0.00000057       0.00000138       4.27629562        1
Ti       0.00000304       2.13814854       6.41444681        1
Ti       2.13814966       0.00000106       6.41444784        1
Ti       2.13814968       2.13815037       4.27629593        1
N        2.13814918       2.13815048       6.41444532        2
N        2.13814984      -0.00000010       4.27629666        2
N        0.00000212       2.13815003       4.27629696        2
N       -0.00000020       0.00000101       6.41444619        2
Ti       0.00000275       0.00000293       8.55258886        1
Ti       0.00000326       2.13814922      10.69073879        1
Ti       2.13815054       0.00000284      10.69073916        1
Ti       2.13814907       2.13814802       8.55258854        1
N        2.13814869       2.13814941      10.69073883        2
N        2.13814897       0.00000156       8.55258994        2
N        0.00000197       2.13814866       8.55258957        2
N       -0.00000010       0.00000268      10.69073912        2
Ti      -0.00000040       4.27629587       0.00000093        1
Ti       0.00000289       6.41444675       2.13815035        1
Ti       2.13814995       4.27629535       2.13815009        1
Ti       2.13815034       6.41444715       0.00000050        1
N        2.13814903       6.41444515       2.13815005        2
N        2.13815003       4.27629591       0.00000020        2
N        0.00000039       6.41444625       0.00000041        2
N        0.00000264       4.27629646       2.13815008        2
Ti      -0.00000023       4.27629551       4.27629604        1
Ti       0.00000203       6.41444673       6.41444640        1
Ti       2.13814993       4.27629597       6.41444596        1
Ti       2.13815018       6.41444645       4.27629624        1
N        2.13814870       6.41444535       6.41444608        2
N        2.13814991       4.27629682       4.27629638        2
N        0.00000038       6.41444569       4.27629650        2
N        0.00000032       4.27629599       6.41444582        2
Ti       0.00000043       4.27629516       8.55258819        1
Ti       0.00000180       6.41444650      10.69073878        1
Ti       2.13815048       4.27629581      10.69073865        1
Ti       2.13815002       6.41444625       8.55258891        1
N        2.13814856       6.41444559      10.69073850        2
N        2.13815009       4.27629508       8.55258871        2
N        0.00000078       6.41444527       8.55258914        2
N       -0.00000010       4.27629621      10.69073912        2
Ti       0.00000107       8.55258885       0.00000105        1
Ti       0.00000268      10.69073923       2.13815001        1
Ti       2.13814887       8.55258857       2.13815029        1
Ti       2.13815022      10.69073913       0.00000058        1
N        2.13814915      10.69074028       2.13815045        2
N        2.13814988       8.55258950       0.00000043        2
N       -0.00000039      10.69073928      -0.00000028        2
N        0.00000200       8.55258943       2.13815017        2
Ti       0.00000206       8.55258882       4.27629632        1
Ti       0.00000215      10.69073930       6.41444671        1
Ti       2.13814859       8.55258846       6.41444661        1
Ti       2.13815012      10.69073802       4.27629596        1
N        2.13814887      10.69073883       6.41444612        2
N        2.13814898       8.55258905       4.27629676        2
N       -0.00000022      10.69073979       4.27629644        2
N        0.00000184       8.55258977       6.41444574        2
Ti       0.00000156       8.55258882       8.55258818        1
Ti       0.00000101      10.69074019      10.69073838        1
Ti       2.13815073       8.55258869      10.69073886        1
Ti       2.13815011      10.69073959       8.55258911        1
N        2.13815059      10.69073978      10.69073886        2
N        2.13815054       8.55258962       8.55258956        2
N       -0.00000018      10.69074047       8.55258879        2
N        0.00000041       8.55258951      10.69073933        2
Ti       4.27629516       0.00000312       0.00000070        1
Ti       4.27629460       2.13815056       2.13814890        1
Ti       6.41444654       0.00000059       2.13814868        1
Ti       6.41444653       2.13814932       0.00000020        1
N        6.41444528       2.13815043       2.13815025        2
N        6.41444556       0.00000217       0.00000210        2
N        4.27629679       2.13814907       0.00000182        2
N        4.27629626       0.00000034       2.13814996        2
Ti       4.27629551       0.00000068       4.27629561        1
Ti       4.27629546       2.13815030       6.41444657        1
Ti       6.41444677       0.00000216       6.41444673        1
Ti       6.41444676       2.13814989       4.27629605        1
N        6.41444519       2.13814920       6.41444523        2
N        6.41444626       0.00000026       4.27629545        2
N        4.27629632       2.13815026       4.27629621        2
N        4.27629658       0.00000040       6.41444634        2
Ti       4.27629542       0.00000284       8.55258868        1
Ti       4.27629442       2.13815040      10.69073955        1
Ti       6.41444649       0.00000023      10.69073973        1
Ti       6.41444613       2.13814873       8.55258851        1
N        6.41444542       2.13815015      10.69073895        2
N        6.41444562       0.00000179       8.55258944        2
N        4.27629624       2.13814855       8.55258958        2
N        4.27629680       0.00000022      10.69073929        2
Ti       4.27629683       4.27629559       0.00000289        1
Ti       4.27629572       6.41444602       2.13815017        1
Ti       6.41444510       4.27629657       2.13814964        1
Ti       6.41444657       6.41444642       0.00000144        1
N        6.41444578       6.41444620       2.13814849        2
N        6.41444658       4.27629631       0.00000023        2
N        4.27629655       6.41444557       0.00000033        2
N        4.27629590       4.27629649       2.13814927        2
Ti       4.27629648       4.27629636       4.27629594        1
Ti       4.27629548       6.41444659       6.41444623        1
Ti       6.41444554       4.27629631       6.41444631        1
Ti       6.41444636       6.41444678       4.27629627        1
N        6.41444612       6.41444575       6.41444583        2
N        6.41444621       4.27629661       4.27629599        2
N        4.27629605       6.41444591       4.27629605        2
N        4.27629631       4.27629630       6.41444568        2
Ti       4.27629656       4.27629515       8.55258855        1
Ti       4.27629554       6.41444670      10.69073877        1
Ti       6.41444610       4.27629682      10.69073867        1
Ti       6.41444578       6.41444635       8.55258948        1
N        6.41444570       6.41444601      10.69073965        2
N        6.41444622       4.27629575       8.55258874        2
N        4.27629622       6.41444564       8.55258941        2
N        4.27629598       4.27629644      10.69073984        2
Ti       4.27629598       8.55258854       0.00000111        1
Ti       4.27629524      10.69073866       2.13815094        1
Ti       6.41444646       8.55258866       2.13814867        1
Ti       6.41444699      10.69073875       0.00000145        1
N        6.41444576      10.69073926       2.13815101        2
N        6.41444583       8.55258921       0.00000220        2
N        4.27629617      10.69073963       0.00000003        2
N        4.27629553       8.55258919       2.13815044        2
Ti       4.27629673       8.55258884       4.27629601        1
Ti       4.27629548      10.69073891       6.41444642        1
Ti       6.41444598       8.55258895       6.41444599        1
Ti       6.41444693      10.69073863       4.27629626        1
N        6.41444591      10.69073983       6.41444577        2
N        6.41444579       8.55258936       4.27629582        2
N        4.27629602      10.69073933       4.27629666        2
N        4.27629552       8.55258956       6.41444593        2
Ti       4.27629643       8.55258906       8.55258840        1
Ti       4.27629527      10.69073861      10.69073823        1
Ti       6.41444694       8.55258870      10.69073981        1
Ti       6.41444643      10.69073907       8.55258864        1
N        6.41444607      10.69073907      10.69073899        2
N        6.41444546       8.55258950       8.55258974        2
N        4.27629664      10.69073991       8.55258920        2
N        4.27629696       8.55258945      10.69073909        2
Ti       8.55258893       0.00000099       0.00000068        1
Ti       8.55258865       2.13815042       2.13815003        1
Ti      10.69073989      -0.00000036       2.13814900        1
Ti      10.69073849       2.13814977       0.00000059        1
N       10.69074062       2.13815022       2.13815047        2
N       10.69073949       0.00000231       0.00000157        2
N        8.55258927       2.13815031      -0.00000005        2
N        8.55258904      -0.00000063       2.13815012        2
Ti       8.55258889       0.00000130       4.27629586        1
Ti       8.55258836       2.13814993       6.41444711        1
Ti      10.69073919       0.00000075       6.41444686        1
Ti      10.69073925       2.13815002       4.27629605        1
N       10.69073993       2.13815049       6.41444567        2
N       10.69073903       0.00000246       4.27629634        2
N        8.55258948       2.13814991       4.27629654        2
N        8.55258935       0.00000027       6.41444577        2
Ti       8.55258888       0.00000127       8.55258871        1
Ti       8.55258871       2.13815061      10.69073847        1
Ti      10.69073875       0.00000006      10.69073960        1
Ti      10.69073951       2.13815005       8.55258856        1
N       10.69074001       2.13815045      10.69073852        2
N       10.69074004      -0.00000052       8.55258944        2
N        8.55258969       2.13815016       8.55258974        2
N        8.55258887       0.00000096      10.69073936        2
Ti       8.55258880       4.27629556       0.00000064        1
Ti       8.55258873       6.41444714       2.13815041        1
Ti      10.69074012       4.27629616       2.13815065        1
Ti      10.69073883       6.41444649       0.00000071        1
N       10.69073966       6.41444575       2.13815029        2
N       10.69073921       4.27629657       0.00000018        2
N        8.55258929       6.41444527       0.00000034        2
N        8.55258922       4.27629712       2.13815006        2
Ti       8.55258947       4.27629557       4.27629596        1
Ti       8.55258908       6.41444622       6.41444644        1
Ti      10.69073898       4.27629595       6.41444670        1
Ti      10.69073880       6.41444666       4.27629662        1
N       10.69073960       6.41444608       6.41444612        2
N       10.69073914       4.27629616       4.27629648        2
N        8.55258883       6.41444610       4.27629640        2
N        8.55258891       4.27629671       6.41444582        2
Ti       8.55258951       4.27629612       8.55258902        1
Ti       8.55258922       6.41444656      10.69073908        1
Ti      10.69073895       4.27629649      10.69073862        1
Ti      10.69073887       6.41444649       8.55258844        1
N       10.69073961       6.41444581      10.69073956        2
N       10.69073954       4.27629589       8.55258919        2
N        8.55258918       6.41444610       8.55258971        2
N        8.55258941       4.27629650      10.69073928        2
Ti       8.55258874       8.55258837       0.00000231        1
Ti       8.55258892      10.69073777       2.13814869        1
Ti      10.69073978       8.55258886       2.13814877        1
Ti      10.69073888      10.69073955       0.00000220        1
N       10.69073967      10.69073851       2.13814891        2
N       10.69073943       8.55258967       0.00000227        2
N        8.55258930      10.69073922       0.00000206        2
N        8.55258958       8.55258927       2.13814902        2
Ti       8.55258877       8.55258851       4.27629580        1
Ti       8.55258900      10.69073860       6.41444647        1
Ti      10.69073998       8.55258885       6.41444624        1
Ti      10.69073821      10.69073901       4.27629632        1
N       10.69073959      10.69073944       6.41444633        2
N       10.69074000       8.55258930       4.27629532        2
N        8.55258885      10.69073869       4.27629553        2
N        8.55258960       8.55258946       6.41444523        2
Ti       8.55258844       8.55258877       8.55258913        1
Ti       8.55258857      10.69073953      10.69073958        1
Ti      10.69073880       8.55258847      10.69074005        1
Ti      10.69073862      10.69073862       8.55258792        1
N       10.69073926      10.69073836      10.69073970        2
N       10.69073981       8.55258940       8.55258948        2
N        8.55258933      10.69073927       8.55258978        2
N        8.55258918       8.55258933      10.69073967        2
