216
Lattice="13.877108715318853 0.0 0.0 0.0 13.877108715318853 0.0 0.0 0.0 13.877108715318853" Properties=species:S:1:pos:R:3:tags:I:1 formal_charge=0 formal_spin=109 charge=0 spin=100 energy_eV=-2202.980372802149 energy_method=uma a_A=4.625702905106285 supercell="_JSON [3, 3, 3]" calibration=cubic_hydrostatic pbc="T T T"
Zr       0.00000029       0.00000025       0.00000021        1
Zr       0.00000024       2.31285154       2.31285153        1
Zr       2.31285155       0.00000022       2.31285153        1
Zr       2.31285148       2.31285156       0.00000025        1
N        2.31285164       2.31285161       2.31285157        2
N        2.31285163       0.00000029       0.00000028        2
N        0.00000016       2.31285159       0.00000019        2
N        0.00000027       0.00000023       2.31285160        2
Zr       0.00000023       0.00000024       4.62570292        1
Zr       0.00000018       2.31285148       6.93855435        1
Zr       2.31285153       0.00000024       6.93855442        1
Zr       2.31285158       2.31285150       4.62570296        1
N        2.31285158       2.31285156       6.93855437        2
N        2.31285159       0.00000026       4.62570287        2
N        0.00000016       2.31285161       4.62570289        2
N        0.00000025       0.00000029       6.93855438        2
Zr       0.00000022       0.00000022       9.25140596        1
Zr       0.00000025       2.31285155      11.56425716        1
Zr       2.31285158       0.00000029      11.56425701        1
Zr       2.31285157       2.31285154       9.25140588        1
N        2.31285163       2.31285158      11.56425679        2
N        2.31285152       0.00000029       9.25140577        2
N        0.00000023       2.31285161       9.25140561        2
N        0.00000028       0.00000027      11.56425696        2
Zr       0.00000025       4.62570286       0.00000025        1
Zr       0.00000029       6.93855435       2.31285151        1
Zr       2.31285154       4.62570296       2.31285149        1
Zr       2.31285153       6.93855432       0.00000030        1
N        2.31285156       6.93855433       2.31285159        2
N        2.31285164       4.62570293       0.00000028        2
N        0.00000018       6.93855445       0.00000027        2
N        0.00000023       4.62570288       2.31285162        2
Zr       0.00000026       4.62570290       4.62570274        1
Zr       0.00000029       6.93855444       6.93855439        1
Zr       2.31285157       4.62570287       6.93855445        1
Zr       2.31285151       6.93855442       4.62570282        1
N        2.31285164       6.93855442       6.93855431        2
N        2.31285155       4.62570287       4.62570297        2
N        0.00000021       6.93855439       4.62570289        2
N        0.00000023       4.62570290       6.93855436        2
Zr       0.00000030       4.62570281       9.25140565        1
Zr       0.00000030       6.93855432      11.56425702        1
Zr       2.31285150       4.62570287      11.56425685        1
Zr       2.31285153       6.93855446       9.25140599        1
N        2.31285159       6.93855440      11.56425697        2
N        2.31285161       4.62570295       9.25140574        2
N        0.00000028       6.93855443       9.25140580        2
N        0.00000023       4.62570299      11.56425697        2
Zr       0.00000017       9.25140595       0.00000028        1
Zr       0.00000032      11.56425693       2.31285150        1
Zr       2.31285149       9.25140585       2.31285157        1
Zr       2.31285147      11.56425707       0.00000028        1
N        2.31285155      11.56425694       2.31285156        2
N        2.31285157       9.25140590       0.00000029        2
N        0.00000024      11.56425673       0.00000017        2
N        0.00000022       9.25140586       2.31285155        2
Zr       0.00000034       9.25140588       4.62570291        1
Zr       0.00000027      11.56425689       6.93855436        1
Zr       2.31285156       9.25140578       6.93855437        1
Zr       2.31285155      11.56425684       4.62570283        1
N        2.31285161      11.56425695       6.93855430        2
N        2.31285153       9.25140590       4.62570280        2
N        0.00000023      11.56425697       4.62570286        2
N        0.00000026       9.25140609       6.93855442        2
Zr       0.00000031       9.25140588       9.25140601        1
Zr       0.00000021      11.56425690      11.56425714        1
Zr       2.31285155       9.25140588      11.56425690        1
Zr       2.31285152      11.56425706       9.25140600        1
N        2.31285160      11.56425683      11.56425695        2
N        2.31285157       9.25140570       9.25140576        2
N        0.00000026      11.56425678       9.25140561        2
N        0.00000030       9.25140605      11.56425691        2
Zr       4.62570291       0.00000019       0.00000024        1
Zr       4.62570281       2.31285149       2.31285149        1
Zr       6.93855442       0.00000018       2.31285148        1
Zr       6.93855428       2.31285159       0.00000026        1
N        6.93855434       2.31285162       2.31285153        2
N        6.93855439       0.00000020       0.00000032        2
N        4.62570287       2.31285156       0.00000031        2
N        4.62570287       0.00000017       2.31285161        2
Zr       4.62570290       0.00000031       4.62570281        1
Zr       4.62570283       2.31285158       6.93855440        1
Zr       6.93855434       0.00000034       6.93855439        1
Zr       6.93855441       2.31285159       4.62570285        1
N        6.93855435       2.31285162       6.93855430        2
N        6.93855436       0.00000027       4.62570286        2
N        4.62570284       2.31285163       4.62570287        2
N        4.62570293       0.00000031       6.93855441        2
Zr       4.62570282       0.00000029       9.25140599        1
Zr       4.62570286       2.31285153      11.56425680        1
Zr       6.93855427       0.00000024      11.56425689        1
Zr       6.93855429       2.31285151       9.25140591        1
N        6.93855431       2.31285161      11.56425703        2
N        6.93855444       0.00000028       9.25140581        2
N        4.62570287       2.31285158       9.25140581        2
N        4.62570294       0.00000030      11.56425694        2
Zr       4.62570291       4.62570286       0.00000032        1
Zr       4.62570273       6.93855433       2.31285154        1
Zr       6.93855437       4.62570283       2.31285159        1
Zr       6.93855441       6.93855438       0.00000028        1
N        6.93855437       6.93855440       2.31285152        2
N        6.93855439       4.62570293       0.00000029        2
N        4.62570281       6.93855435       0.00000024        2
N        4.62570288       4.62570300       2.31285160        2
Zr       4.62570293       4.62570287       4.62570287        1
Zr       4.62570280       6.93855436       6.93855437        1
Zr       6.93855435       4.62570292       6.93855433        1
Zr       6.93855439       6.93855445       4.62570290        1
N        6.93855443       6.93855436       6.93855428        2
N        6.93855435       4.62570287       4.62570281        2
N        4.62570281       6.93855447       4.62570283        2
N        4.62570285       4.62570289       6.93855440        2
Zr       4.62570277       4.62570285       9.25140582        1
Zr       4.62570282       6.93855441      11.56425700        1
Zr       6.93855431       4.62570297      11.56425680        1
Zr       6.93855431       6.93855449       9.25140591        1
N        6.93855442       6.93855437      11.56425686        2
N        6.93855437       4.62570293       9.25140597        2
N        4.62570289       6.93855432       9.25140581        2
N        4.62570294       4.62570292      11.56425672        2
Zr       4.62570302       9.25140580       0.00000030        1
Zr       4.62570284      11.56425714       2.31285155        1
Zr       6.93855443       9.25140578       2.31285156        1
Zr       6.93855429      11.56425698       0.00000031        1
N        6.93855432      11.56425710       2.31285159        2
N        6.93855428       9.25140570       0.00000023        2
N        4.62570283      11.56425707       0.00000025        2
N        4.62570285       9.25140572       2.31285156        2
Zr       4.62570283       9.25140567       4.62570291        1
Zr       4.62570283      11.56425696       6.93855436        1
Zr       6.93855452       9.25140576       6.93855456        1
Zr       6.93855434      11.56425711       4.62570280        1
N        6.93855438      11.56425690       6.93855444        2
N        6.93855440       9.25140578       4.62570281        2
N        4.62570281      11.56425695       4.62570288        2
N        4.62570280       9.25140602       6.93855434        2
Zr       4.62570286       9.25140568       9.25140602        1
Zr       4.62570291      11.56425685      11.56425682        1
Zr       6.93855434       9.25140585      11.56425705        1
Zr       6.93855444      11.56425697       9.25140568        1
N        6.93855441      11.56425708      11.56425675        2
N        6.93855436       9.25140579       9.25140571        2
N        4.62570287      11.56425692       9.25140584        2
N        4.62570290       9.25140608      11.56425674        2
Zr       9.25140596       0.00000019       0.00000025        1
Zr       9.25140576       2.31285151       2.31285154        1
Zr      11.56425700       0.00000031       2.31285151        1
Zr      11.56425718       2.31285157       0.00000026        1
N       11.56425677       2.31285160       2.31285156        2
N       11.56425665       0.00000026       0.00000030        2
N        9.25140590       2.31285159       0.00000024        2
N        9.25140586       0.00000032       2.31285159        2
Zr       9.25140582       0.00000031       4.62570291        1
Zr       9.25140586       2.31285153       6.93855442        1
Zr      11.56425687       0.00000032       6.93855432        1
Zr      11.56425712       2.31285146       4.62570297        1
N       11.56425698       2.31285162       6.93855439        2
N       11.56425675       0.00000027       4.62570299        2
N        9.25140568       2.31285164       4.62570287        2
N        9.25140595       0.00000022       6.93855435        2
Zr       9.25140581       0.00000036       9.25140591        1
Zr       9.25140581       2.31285146      11.56425698        1
Zr      11.56425675       0.00000027      11.56425695        1
Zr      11.56425692       2.31285157       9.25140583        1
N       11.56425680       2.31285162      11.56425704        2
N       11.56425701       0.00000027       9.25140572        2
N        9.25140587       2.31285158       9.25140582        2
N        9.25140603       0.00000030      11.56425676        2
Zr       9.25140569       4.62570282       0.00000032        1
Zr       9.25140592       6.93855444       2.31285151        1
Zr      11.56425715       4.62570286       2.31285155        1
Zr      11.56425716       6.93855443       0.00000026        1
N       11.56425686       6.93855429       2.31285155        2
N       11.56425694       4.62570292       0.00000033        2
N        9.25140588       6.93855428       0.00000025        2
N        9.25140584       4.62570280       2.31285158        2
Zr       9.25140590       4.62570282       4.62570292        1
Zr       9.25140557       6.93855435       6.93855441        1
Zr      11.56425713       4.62570290       6.93855434        1
Zr      11.56425710       6.93855436       4.62570285        1
N       11.56425685       6.93855428       6.93855441        2
N       11.56425683       4.62570294       4.62570293        2
N        9.25140582       6.93855447       4.62570290        2
N        9.25140588       4.62570298       6.93855441        2
Zr       9.25140572       4.62570289       9.25140595        1
Zr       9.25140578       6.93855432      11.56425702        1
Zr      11.56425695       4.62570283      11.56425671        1
Zr      11.56425684       6.93855444       9.25140589        1
N       11.56425682       6.93855446      11.56425693        2
N       11.56425696       4.62570283       9.25140576        2
N        9.25140595       6.93855435       9.25140569        2
N        9.25140578       4.62570301      11.56425664        2
Zr       9.25140591       9.25140603       0.00000032        1
Zr       9.25140569      11.56425675       2.31285149        1
Zr      11.56425716       9.25140598       2.31285155        1
Zr      11.56425704      11.56425704       0.00000021        1
N       11.56425691      11.56425682       2.31285161        2
N       11.56425699       9.25140597       0.00000032        2
N        9.25140598      11.56425682       0.00000031        2
N        9.25140581       9.25140592       2.31285159        2
Zr       9.25140600       9.25140572       4.62570289        1
Zr       9.25140587      11.56425703       6.93855436        1
Zr      11.56425705       9.25140600       6.93855439        1
Zr      11.56425701      11.56425680       4.62570290        1
N       11.56425680      11.56425674       6.93855441        2
N       11.56425684       9.25140589       4.62570285        2
N        9.25140597      11.56425674       4.62570285        2
N        9.25140576       9.25140580       6.93855432        2
Zr       9.25140571       9.25140600       9.25140583        1
Zr       9.25140588      11.56425692      11.56425688        1
Zr      11.56425709       9.25140581      11.56425682        1
Zr      11.56425710      11.56425684       9.25140573        1
N       11.56425692      11.56425683      11.56425690        2
N       11.56425692       9.25140604       9.25140565        2
N        9.25140582      11.56425673       9.25140599        2
N        9.25140586       9.25140576      11.56425691        2
