216
Lattice="13.453615425789224 0.0 0.0 0.0 13.453615425789224 0.0 0.0 0.0 13.453615425789224" Properties=species:S:1:pos:R:3:tags:I:1 sqs_abs_alpha=0.12283015685613087 energy=-2238.3549778752918 mc_step=100 energy_method=uma rosenbluth_W_new=4.684119717679333 rosenbluth_W_old=3.1356364376380594 pbc="T T T"
Ti       0.00000000       0.00000000       0.00000000        1
Hf       0.00000000       2.24226924       2.24226924        1
Hf       2.24226924       0.00000000       2.24226924        1
Nb       2.24226924       2.24226924       0.00000000        1
N        2.24226924       2.24226924       2.24226924        2
N        2.24226924       0.00000000       0.00000000        2
N        0.00000000       2.24226924       0.00000000        2
N        0.00000000       0.00000000       2.24226924        2
Nb       0.00000000       0.00000000       4.48453848        1
Hf       0.00000000       2.24226924       6.72680771        1
Ta       2.24226924       0.00000000       6.72680771        1
Ta       2.24226924       2.24226924       4.48453848        1
N        2.24226924       2.24226924       6.72680771        2
N        2.24226924       0.00000000       4.48453848        2
N        0.00000000       2.24226924       4.48453848        2
N        0.00000000       0.00000000       6.72680771        2
Ti       0.00000000       0.00000000       8.96907695        1
Zr       0.00000000       2.24226924      11.21134619        1
Hf       2.24226924       0.00000000      11.21134619        1
Ta       2.24226924       2.24226924       8.96907695        1
N        2.24226924       2.24226924      11.21134619        2
N        2.24226924       0.00000000       8.96907695        2
N        0.00000000       2.24226924       8.96907695        2
N        0.00000000       0.00000000      11.21134619        2
Hf       0.00000000       4.48453848       0.00000000        1
Ti       0.00000000       6.72680771       2.24226924        1
Nb       2.24226924       4.48453848       2.24226924        1
Ti       2.24226924       6.72680771       0.00000000        1
N        2.24226924       6.72680771       2.24226924        2
N        2.24226924       4.48453848       0.00000000        2
N        0.00000000       6.72680771       0.00000000        2
N        0.00000000       4.48453848       2.24226924        2
Zr       0.00000000       4.48453848       4.48453848        1
Zr       0.00000000       6.72680771       6.72680771        1
Zr       2.24226924       4.48453848       6.72680771        1
Ti       2.24226924       6.72680771       4.48453848        1
N        2.24226924       6.72680771       6.72680771        2
N        2.24226924       4.48453848       4.48453848        2
N        0.00000000       6.72680771       4.48453848        2
N        0.00000000       4.48453848       6.72680771        2
Ti       0.00000000       4.48453848       8.96907695        1
Nb       0.00000000       6.72680771      11.21134619        1
Zr       2.24226924       4.48453848      11.21134619        1
Nb       2.24226924       6.72680771       8.96907695        1
N        2.24226924       6.72680771      11.21134619        2
N        2.24226924       4.48453848       8.96907695        2
N        0.00000000       6.72680771       8.96907695        2
N        0.00000000       4.48453848      11.21134619        2
Zr       0.00000000       8.96907695       0.00000000        1
Ta       0.00000000      11.21134619       2.24226924        1
Nb       2.24226924       8.96907695       2.24226924        1
Hf       2.24226924      11.21134619       0.00000000        1
N        2.24226924      11.21134619       2.24226924        2
N        2.24226924       8.96907695       0.00000000        2
N        0.00000000      11.21134619       0.00000000        2
N        0.00000000       8.96907695       2.24226924        2
Ta       0.00000000       8.96907695       4.48453848        1
Ta       0.00000000      11.21134619       6.72680771        1
Ti       2.24226924       8.96907695       6.72680771        1
Ti       2.24226924      11.21134619       4.48453848        1
N        2.24226924      11.21134619       6.72680771        2
N        2.24226924       8.96907695       4.48453848        2
N        0.00000000      11.21134619       4.48453848        2
N        0.00000000       8.96907695       6.72680771        2
Ti       0.00000000       8.96907695       8.96907695        1
Ta       0.00000000      11.21134619      11.21134619        1
Hf       2.24226924       8.96907695      11.21134619        1
Zr       2.24226924      11.21134619       8.96907695        1
N        2.24226924      11.21134619      11.21134619        2
N        2.24226924       8.96907695       8.96907695        2
N        0.00000000      11.21134619       8.96907695        2
N        0.00000000       8.96907695      11.21134619        2
Nb       4.48453848       0.00000000       0.00000000        1
Nb       4.48453848       2.24226924       2.24226924        1
Ta       6.72680771       0.00000000       2.24226924        1
Zr       6.72680771       2.24226924       0.00000000        1
N        6.72680771       2.24226924       2.24226924        2
N        6.72680771       0.00000000       0.00000000        2
N        4.48453848       2.24226924       0.00000000        2
N        4.48453848       0.00000000       2.24226924        2
Zr       4.48453848       0.00000000       4.48453848        1
Zr       4.48453848       2.24226924       6.72680771        1
Hf       6.72680771       0.00000000       6.72680771        1
Zr       6.72680771       2.24226924       4.48453848        1
N        6.72680771       2.24226924       6.72680771        2
N        6.72680771       0.00000000       4.48453848        2
N        4.48453848       2.24226924       4.48453848        2
N        4.48453848       0.00000000       6.72680771        2
Nb       4.48453848       0.00000000       8.96907695        1
Ti       4.48453848       2.24226924      11.21134619        1
Nb       6.72680771       0.00000000      11.21134619        1
Zr       6.72680771       2.24226924       8.96907695        1
N        6.72680771       2.24226924      11.21134619        2
N        6.72680771       0.00000000       8.96907695        2
N        4.48453848       2.24226924       8.96907695        2
N        4.48453848       0.00000000      11.21134619        2
Ti       4.48453848       4.48453848       0.00000000        1
Ta       4.48453848       6.72680771       2.24226924        1
Ti       6.72680771       4.48453848       2.24226924        1
Zr       6.72680771       6.72680771       0.00000000        1
N        6.72680771       6.72680771       2.24226924        2
N        6.72680771       4.48453848       0.00000000        2
N        4.48453848       6.72680771       0.00000000        2
N        4.48453848       4.48453848       2.24226924        2
Hf       4.48453848       4.48453848       4.48453848        1
Zr       4.48453848       6.72680771       6.72680771        1
Nb       6.72680771       4.48453848       6.72680771        1
Ti       6.72680771       6.72680771       4.48453848        1
N        6.72680771       6.72680771       6.72680771        2
N        6.72680771       4.48453848       4.48453848        2
N        4.48453848       6.72680771       4.48453848        2
N        4.48453848       4.48453848       6.72680771        2
Hf       4.48453848       4.48453848       8.96907695        1
Hf       4.48453848       6.72680771      11.21134619        1
Nb       6.72680771       4.48453848      11.21134619        1
Nb       6.72680771       6.72680771       8.96907695        1
N        6.72680771       6.72680771      11.21134619        2
N        6.72680771       4.48453848       8.96907695        2
N        4.48453848       6.72680771       8.96907695        2
N        4.48453848       4.48453848      11.21134619        2
Zr       4.48453848       8.96907695       0.00000000        1
Zr       4.48453848      11.21134619       2.24226924        1
Ti       6.72680771       8.96907695       2.24226924        1
Nb       6.72680771      11.21134619       0.00000000        1
N        6.72680771      11.21134619       2.24226924        2
N        6.72680771       8.96907695       0.00000000        2
N        4.48453848      11.21134619       0.00000000        2
N        4.48453848       8.96907695       2.24226924        2
Ta       4.48453848       8.96907695       4.48453848        1
Ta       4.48453848      11.21134619       6.72680771        1
Ta       6.72680771       8.96907695       6.72680771        1
Zr       6.72680771      11.21134619       4.48453848        1
N        6.72680771      11.21134619       6.72680771        2
N        6.72680771       8.96907695       4.48453848        2
N        4.48453848      11.21134619       4.48453848        2
N        4.48453848       8.96907695       6.72680771        2
Ti       4.48453848       8.96907695       8.96907695        1
Ti       4.48453848      11.21134619      11.21134619        1
Ta       6.72680771       8.96907695      11.21134619        1
Hf       6.72680771      11.21134619       8.96907695        1
N        6.72680771      11.21134619      11.21134619        2
N        6.72680771       8.96907695       8.96907695        2
N        4.48453848      11.21134619       8.96907695        2
N        4.48453848       8.96907695      11.21134619        2
Hf       8.96907695       0.00000000       0.00000000        1
Ta       8.96907695       2.24226924       2.24226924        1
Hf      11.21134619       0.00000000       2.24226924        1
Ti      11.21134619       2.24226924       0.00000000        1
N       11.21134619       2.24226924       2.24226924        2
N       11.21134619       0.00000000       0.00000000        2
N        8.96907695       2.24226924       0.00000000        2
N        8.96907695       0.00000000       2.24226924        2
Nb       8.96907695       0.00000000       4.48453848        1
Zr       8.96907695       2.24226924       6.72680771        1
Hf      11.21134619       0.00000000       6.72680771        1
Ti      11.21134619       2.24226924       4.48453848        1
N       11.21134619       2.24226924       6.72680771        2
N       11.21134619       0.00000000       4.48453848        2
N        8.96907695       2.24226924       4.48453848        2
N        8.96907695       0.00000000       6.72680771        2
Hf       8.96907695       0.00000000       8.96907695        1
Ta       8.96907695       2.24226924      11.21134619        1
Hf      11.21134619       0.00000000      11.21134619        1
Nb      11.21134619       2.24226924       8.96907695        1
N       11.21134619       2.24226924      11.21134619        2
N       11.21134619       0.00000000       8.96907695        2
N        8.96907695       2.24226924       8.96907695        2
N        8.96907695       0.00000000      11.21134619        2
Ta       8.96907695       4.48453848       0.00000000        1
Nb       8.96907695       6.72680771       2.24226924        1
Hf      11.21134619       4.48453848       2.24226924        1
Zr      11.21134619       6.72680771       0.00000000        1
N       11.21134619       6.72680771       2.24226924        2
N       11.21134619       4.48453848       0.00000000        2
N        8.96907695       6.72680771       0.00000000        2
N        8.96907695       4.48453848       2.24226924        2
Zr       8.96907695       4.48453848       4.48453848        1
Nb       8.96907695       6.72680771       6.72680771        1
Hf      11.21134619       4.48453848       6.72680771        1
Ta      11.21134619       6.72680771       4.48453848        1
N       11.21134619       6.72680771       6.72680771        2
N       11.21134619       4.48453848       4.48453848        2
N        8.96907695       6.72680771       4.48453848        2
N        8.96907695       4.48453848       6.72680771        2
Ta       8.96907695       4.48453848       8.96907695        1
Zr       8.96907695       6.72680771      11.21134619        1
Nb      11.21134619       4.48453848      11.21134619        1
Hf      11.21134619       6.72680771       8.96907695        1
N       11.21134619       6.72680771      11.21134619        2
N       11.21134619       4.48453848       8.96907695        2
N        8.96907695       6.72680771       8.96907695        2
N        8.96907695       4.48453848      11.21134619        2
Ta       8.96907695       8.96907695       0.00000000        1
Ta       8.96907695      11.21134619       2.24226924        1
Ti      11.21134619       8.96907695       2.24226924        1
Nb      11.21134619      11.21134619       0.00000000        1
N       11.21134619      11.21134619       2.24226924        2
N       11.21134619       8.96907695       0.00000000        2
N        8.96907695      11.21134619       0.00000000        2
N        8.96907695       8.96907695       2.24226924        2
Hf       8.96907695       8.96907695       4.48453848        1
Nb       8.96907695      11.21134619       6.72680771        1
Ti      11.21134619       8.96907695       6.72680771        1
Zr      11.21134619      11.21134619       4.48453848        1
N       11.21134619      11.21134619       6.72680771        2
N       11.21134619       8.96907695       4.48453848        2
N        8.96907695      11.21134619       4.48453848        2
N        8.96907695       8.96907695       6.72680771        2
Ta       8.96907695       8.96907695       8.96907695        1
Ti       8.96907695      11.21134619      11.21134619        1
Ti      11.21134619       8.96907695      11.21134619        1
Hf      11.21134619      11.21134619       8.96907695        1
N       11.21134619      11.21134619      11.21134619        2
N       11.21134619       8.96907695       8.96907695        2
N        8.96907695      11.21134619       8.96907695        2
N        8.96907695       8.96907695      11.21134619        2
216
Lattice="13.453615425789224 0.0 0.0 0.0 13.453615425789224 0.0 0.0 0.0 13.453615425789224" Properties=species:S:1:pos:R:3:tags:I:1 sqs_abs_alpha=0.09929161747343568 energy=-2238.270105309833 mc_step=150 energy_method=uma rosenbluth_W_new=4.299661279661061 rosenbluth_W_old=3.1202638155067053 pbc="T T T"
Ti       0.00000000       0.00000000       0.00000000        1
Hf       0.00000000       2.24226924       2.24226924        1
Ti       2.24226924       0.00000000       2.24226924        1
Ta       2.24226924       2.24226924       0.00000000        1
N        2.24226924       2.24226924       2.24226924        2
N        2.24226924       0.00000000       0.00000000        2
N        0.00000000       2.24226924       0.00000000        2
N        0.00000000       0.00000000       2.24226924        2
Ti       0.00000000       0.00000000       4.48453848        1
Zr       0.00000000       2.24226924       6.72680771        1
Ta       2.24226924       0.00000000       6.72680771        1
Nb       2.24226924       2.24226924       4.48453848        1
N        2.24226924       2.24226924       6.72680771        2
N        2.24226924       0.00000000       4.48453848        2
N        0.00000000       2.24226924       4.48453848        2
N        0.00000000       0.00000000       6.72680771        2
Ti       0.00000000       0.00000000       8.96907695        1
Zr       0.00000000       2.24226924      11.21134619        1
Hf       2.24226924       0.00000000      11.21134619        1
Nb       2.24226924       2.24226924       8.96907695        1
N        2.24226924       2.24226924      11.21134619        2
N        2.24226924       0.00000000       8.96907695        2
N        0.00000000       2.24226924       8.96907695        2
N        0.00000000       0.00000000      11.21134619        2
Ta       0.00000000       4.48453848       0.00000000        1
Ti       0.00000000       6.72680771       2.24226924        1
Ta       2.24226924       4.48453848       2.24226924        1
Ta       2.24226924       6.72680771       0.00000000        1
N        2.24226924       6.72680771       2.24226924        2
N        2.24226924       4.48453848       0.00000000        2
N        0.00000000       6.72680771       0.00000000        2
N        0.00000000       4.48453848       2.24226924        2
Zr       0.00000000       4.48453848       4.48453848        1
Hf       0.00000000       6.72680771       6.72680771        1
Ti       2.24226924       4.48453848       6.72680771        1
Ti       2.24226924       6.72680771       4.48453848        1
N        2.24226924       6.72680771       6.72680771        2
N        2.24226924       4.48453848       4.48453848        2
N        0.00000000       6.72680771       4.48453848        2
N        0.00000000       4.48453848       6.72680771        2
Zr       0.00000000       4.48453848       8.96907695        1
Nb       0.00000000       6.72680771      11.21134619        1
Zr       2.24226924       4.48453848      11.21134619        1
Ti       2.24226924       6.72680771       8.96907695        1
N        2.24226924       6.72680771      11.21134619        2
N        2.24226924       4.48453848       8.96907695        2
N        0.00000000       6.72680771       8.96907695        2
N        0.00000000       4.48453848      11.21134619        2
Zr       0.00000000       8.96907695       0.00000000        1
Ta       0.00000000      11.21134619       2.24226924        1
Nb       2.24226924       8.96907695       2.24226924        1
Hf       2.24226924      11.21134619       0.00000000        1
N        2.24226924      11.21134619       2.24226924        2
N        2.24226924       8.96907695       0.00000000        2
N        0.00000000      11.21134619       0.00000000        2
N        0.00000000       8.96907695       2.24226924        2
Ta       0.00000000       8.96907695       4.48453848        1
Hf       0.00000000      11.21134619       6.72680771        1
Zr       2.24226924       8.96907695       6.72680771        1
Ti       2.24226924      11.21134619       4.48453848        1
N        2.24226924      11.21134619       6.72680771        2
N        2.24226924       8.96907695       4.48453848        2
N        0.00000000      11.21134619       4.48453848        2
N        0.00000000       8.96907695       6.72680771        2
Hf       0.00000000       8.96907695       8.96907695        1
Nb       0.00000000      11.21134619      11.21134619        1
Nb       2.24226924       8.96907695      11.21134619        1
Ta       2.24226924      11.21134619       8.96907695        1
N        2.24226924      11.21134619      11.21134619        2
N        2.24226924       8.96907695       8.96907695        2
N        0.00000000      11.21134619       8.96907695        2
N        0.00000000       8.96907695      11.21134619        2
Nb       4.48453848       0.00000000       0.00000000        1
Nb       4.48453848       2.24226924       2.24226924        1
Nb       6.72680771       0.00000000       2.24226924        1
Nb       6.72680771       2.24226924       0.00000000        1
N        6.72680771       2.24226924       2.24226924        2
N        6.72680771       0.00000000       0.00000000        2
N        4.48453848       2.24226924       0.00000000        2
N        4.48453848       0.00000000       2.24226924        2
Ti       4.48453848       0.00000000       4.48453848        1
Ta       4.48453848       2.24226924       6.72680771        1
Hf       6.72680771       0.00000000       6.72680771        1
Ta       6.72680771       2.24226924       4.48453848        1
N        6.72680771       2.24226924       6.72680771        2
N        6.72680771       0.00000000       4.48453848        2
N        4.48453848       2.24226924       4.48453848        2
N        4.48453848       0.00000000       6.72680771        2
Nb       4.48453848       0.00000000       8.96907695        1
Ti       4.48453848       2.24226924      11.21134619        1
Ta       6.72680771       0.00000000      11.21134619        1
Hf       6.72680771       2.24226924       8.96907695        1
N        6.72680771       2.24226924      11.21134619        2
N        6.72680771       0.00000000       8.96907695        2
N        4.48453848       2.24226924       8.96907695        2
N        4.48453848       0.00000000      11.21134619        2
Ti       4.48453848       4.48453848       0.00000000        1
Hf       4.48453848       6.72680771       2.24226924        1
Ti       6.72680771       4.48453848       2.24226924        1
Zr       6.72680771       6.72680771       0.00000000        1
N        6.72680771       6.72680771       2.24226924        2
N        6.72680771       4.48453848       0.00000000        2
N        4.48453848       6.72680771       0.00000000        2
N        4.48453848       4.48453848       2.24226924        2
Hf       4.48453848       4.48453848       4.48453848        1
Ta       4.48453848       6.72680771       6.72680771        1
Ta       6.72680771       4.48453848       6.72680771        1
Zr       6.72680771       6.72680771       4.48453848        1
N        6.72680771       6.72680771       6.72680771        2
N        6.72680771       4.48453848       4.48453848        2
N        4.48453848       6.72680771       4.48453848        2
N        4.48453848       4.48453848       6.72680771        2
Zr       4.48453848       4.48453848       8.96907695        1
Ta       4.48453848       6.72680771      11.21134619        1
Hf       6.72680771       4.48453848      11.21134619        1
Nb       6.72680771       6.72680771       8.96907695        1
N        6.72680771       6.72680771      11.21134619        2
N        6.72680771       4.48453848       8.96907695        2
N        4.48453848       6.72680771       8.96907695        2
N        4.48453848       4.48453848      11.21134619        2
Zr       4.48453848       8.96907695       0.00000000        1
Zr       4.48453848      11.21134619       2.24226924        1
Ti       6.72680771       8.96907695       2.24226924        1
Ta       6.72680771      11.21134619       0.00000000        1
N        6.72680771      11.21134619       2.24226924        2
N        6.72680771       8.96907695       0.00000000        2
N        4.48453848      11.21134619       0.00000000        2
N        4.48453848       8.96907695       2.24226924        2
Ta       4.48453848       8.96907695       4.48453848        1
Ti       4.48453848      11.21134619       6.72680771        1
Hf       6.72680771       8.96907695       6.72680771        1
Zr       6.72680771      11.21134619       4.48453848        1
N        6.72680771      11.21134619       6.72680771        2
N        6.72680771       8.96907695       4.48453848        2
N        4.48453848      11.21134619       4.48453848        2
N        4.48453848       8.96907695       6.72680771        2
Ti       4.48453848       8.96907695       8.96907695        1
Ti       4.48453848      11.21134619      11.21134619        1
Zr       6.72680771       8.96907695      11.21134619        1
Zr       6.72680771      11.21134619       8.96907695        1
N        6.72680771      11.21134619      11.21134619        2
N        6.72680771       8.96907695       8.96907695        2
N        4.48453848      11.21134619       8.96907695        2
N        4.48453848       8.96907695      11.21134619        2
Zr       8.96907695       0.00000000       0.00000000        1
Zr       8.96907695       2.24226924       2.24226924        1
Hf      11.21134619       0.00000000       2.24226924        1
Ti      11.21134619       2.24226924       0.00000000        1
N       11.21134619       2.24226924       2.24226924        2
N       11.21134619       0.00000000       0.00000000        2
N        8.96907695       2.24226924       0.00000000        2
N        8.96907695       0.00000000       2.24226924        2
Nb       8.96907695       0.00000000       4.48453848        1
Zr       8.96907695       2.24226924       6.72680771        1
Hf      11.21134619       0.00000000       6.72680771        1
Hf      11.21134619       2.24226924       4.48453848        1
N       11.21134619       2.24226924       6.72680771        2
N       11.21134619       0.00000000       4.48453848        2
N        8.96907695       2.24226924       4.48453848        2
N        8.96907695       0.00000000       6.72680771        2
Hf       8.96907695       0.00000000       8.96907695        1
Zr       8.96907695       2.24226924      11.21134619        1
Hf      11.21134619       0.00000000      11.21134619        1
Nb      11.21134619       2.24226924       8.96907695        1
N       11.21134619       2.24226924      11.21134619        2
N       11.21134619       0.00000000       8.96907695        2
N        8.96907695       2.24226924       8.96907695        2
N        8.96907695       0.00000000      11.21134619        2
Ta       8.96907695       4.48453848       0.00000000        1
Nb       8.96907695       6.72680771       2.24226924        1
Ta      11.21134619       4.48453848       2.24226924        1
Zr      11.21134619       6.72680771       0.00000000        1
N       11.21134619       6.72680771       2.24226924        2
N       11.21134619       4.48453848       0.00000000        2
N        8.96907695       6.72680771       0.00000000        2
N        8.96907695       4.48453848       2.24226924        2
Ti       8.96907695       4.48453848       4.48453848        1
Nb       8.96907695       6.72680771       6.72680771        1
Hf      11.21134619       4.48453848       6.72680771        1
Hf      11.21134619       6.72680771       4.48453848        1
N       11.21134619       6.72680771       6.72680771        2
N       11.21134619       4.48453848       4.48453848        2
N        8.96907695       6.72680771       4.48453848        2
N        8.96907695       4.48453848       6.72680771        2
Ta       8.96907695       4.48453848       8.96907695        1
Zr       8.96907695       6.72680771      11.21134619        1
Nb      11.21134619       4.48453848      11.21134619        1
Hf      11.21134619       6.72680771       8.96907695        1
N       11.21134619       6.72680771      11.21134619        2
N       11.21134619       4.48453848       8.96907695        2
N        8.96907695       6.72680771       8.96907695        2
N        8.96907695       4.48453848      11.21134619        2
Ta       8.96907695       8.96907695       0.00000000        1
Ta       8.96907695      11.21134619       2.24226924        1
Hf      11.21134619       8.96907695       2.24226924        1
Nb      11.21134619      11.21134619       0.00000000        1
N       11.21134619      11.21134619       2.24226924        2
N       11.21134619       8.96907695       0.00000000        2
N        8.96907695      11.21134619       0.00000000        2
N        8.96907695       8.96907695       2.24226924        2
Hf       8.96907695       8.96907695       4.48453848        1
Nb       8.96907695      11.21134619       6.72680771        1
Ti      11.21134619       8.96907695       6.72680771        1
Zr      11.21134619      11.21134619       4.48453848        1
N       11.21134619      11.21134619       6.72680771        2
N       11.21134619       8.96907695       4.48453848        2
N        8.96907695      11.21134619       4.48453848        2
N        8.96907695       8.96907695       6.72680771        2
Nb       8.96907695       8.96907695       8.96907695        1
Ti       8.96907695      11.21134619      11.21134619        1
Ti      11.21134619       8.96907695      11.21134619        1
Nb      11.21134619      11.21134619       8.96907695        1
N       11.21134619      11.21134619      11.21134619        2
N       11.21134619       8.96907695       8.96907695        2
N        8.96907695      11.21134619       8.96907695        2
N        8.96907695       8.96907695      11.21134619        2
216
Lattice="13.453615425789224 0.0 0.0 0.0 13.453615425789224 0.0 0.0 0.0 13.453615425789224" Properties=species:S:1:pos:R:3:tags:I:1 sqs_abs_alpha=0.11732501264968796 energy=-2238.36855090047 mc_step=200 energy_method=uma rosenbluth_W_new=4.105334863184604 rosenbluth_W_old=7.3217151522792285 pbc="T T T"
Ti       0.00000000       0.00000000       0.00000000        1
Hf       0.00000000       2.24226924       2.24226924        1
Hf       2.24226924       0.00000000       2.24226924        1
Ta       2.24226924       2.24226924       0.00000000        1
N        2.24226924       2.24226924       2.24226924        2
N        2.24226924       0.00000000       0.00000000        2
N        0.00000000       2.24226924       0.00000000        2
N        0.00000000       0.00000000       2.24226924        2
Ti       0.00000000       0.00000000       4.48453848        1
Hf       0.00000000       2.24226924       6.72680771        1
Ta       2.24226924       0.00000000       6.72680771        1
Nb       2.24226924       2.24226924       4.48453848        1
N        2.24226924       2.24226924       6.72680771        2
N        2.24226924       0.00000000       4.48453848        2
N        0.00000000       2.24226924       4.48453848        2
N        0.00000000       0.00000000       6.72680771        2
Ti       0.00000000       0.00000000       8.96907695        1
Nb       0.00000000       2.24226924      11.21134619        1
Hf       2.24226924       0.00000000      11.21134619        1
Ti       2.24226924       2.24226924       8.96907695        1
N        2.24226924       2.24226924      11.21134619        2
N        2.24226924       0.00000000       8.96907695        2
N        0.00000000       2.24226924       8.96907695        2
N        0.00000000       0.00000000      11.21134619        2
Ta       0.00000000       4.48453848       0.00000000        1
Ti       0.00000000       6.72680771       2.24226924        1
Ti       2.24226924       4.48453848       2.24226924        1
Ta       2.24226924       6.72680771       0.00000000        1
N        2.24226924       6.72680771       2.24226924        2
N        2.24226924       4.48453848       0.00000000        2
N        0.00000000       6.72680771       0.00000000        2
N        0.00000000       4.48453848       2.24226924        2
Zr       0.00000000       4.48453848       4.48453848        1
Ta       0.00000000       6.72680771       6.72680771        1
Ti       2.24226924       4.48453848       6.72680771        1
Hf       2.24226924       6.72680771       4.48453848        1
N        2.24226924       6.72680771       6.72680771        2
N        2.24226924       4.48453848       4.48453848        2
N        0.00000000       6.72680771       4.48453848        2
N        0.00000000       4.48453848       6.72680771        2
Zr       0.00000000       4.48453848       8.96907695        1
Ti       0.00000000       6.72680771      11.21134619        1
Ti       2.24226924       4.48453848      11.21134619        1
Hf       2.24226924       6.72680771       8.96907695        1
N        2.24226924       6.72680771      11.21134619        2
N        2.24226924       4.48453848       8.96907695        2
N        0.00000000       6.72680771       8.96907695        2
N        0.00000000       4.48453848      11.21134619        2
Zr       0.00000000       8.96907695       0.00000000        1
Ta       0.00000000      11.21134619       2.24226924        1
Nb       2.24226924       8.96907695       2.24226924        1
Zr       2.24226924      11.21134619       0.00000000        1
N        2.24226924      11.21134619       2.24226924        2
N        2.24226924       8.96907695       0.00000000        2
N        0.00000000      11.21134619       0.00000000        2
N        0.00000000       8.96907695       2.24226924        2
Zr       0.00000000       8.96907695       4.48453848        1
Ti       0.00000000      11.21134619       6.72680771        1
Hf       2.24226924       8.96907695       6.72680771        1
Hf       2.24226924      11.21134619       4.48453848        1
N        2.24226924      11.21134619       6.72680771        2
N        2.24226924       8.96907695       4.48453848        2
N        0.00000000      11.21134619       4.48453848        2
N        0.00000000       8.96907695       6.72680771        2
Zr       0.00000000       8.96907695       8.96907695        1
Ti       0.00000000      11.21134619      11.21134619        1
Nb       2.24226924       8.96907695      11.21134619        1
Ta       2.24226924      11.21134619       8.96907695        1
N        2.24226924      11.21134619      11.21134619        2
N        2.24226924       8.96907695       8.96907695        2
N        0.00000000      11.21134619       8.96907695        2
N        0.00000000       8.96907695      11.21134619        2
Nb       4.48453848       0.00000000       0.00000000        1
Zr       4.48453848       2.24226924       2.24226924        1
Nb       6.72680771       0.00000000       2.24226924        1
Nb       6.72680771       2.24226924       0.00000000        1
N        6.72680771       2.24226924       2.24226924        2
N        6.72680771       0.00000000       0.00000000        2
N        4.48453848       2.24226924       0.00000000        2
N        4.48453848       0.00000000       2.24226924        2
Ti       4.48453848       0.00000000       4.48453848        1
Zr       4.48453848       2.24226924       6.72680771        1
Nb       6.72680771       0.00000000       6.72680771        1
Hf       6.72680771       2.24226924       4.48453848        1
N        6.72680771       2.24226924       6.72680771        2
N        6.72680771       0.00000000       4.48453848        2
N        4.48453848       2.24226924       4.48453848        2
N        4.48453848       0.00000000       6.72680771        2
Zr       4.48453848       0.00000000       8.96907695        1
Nb       4.48453848       2.24226924      11.21134619        1
Nb       6.72680771       0.00000000      11.21134619        1
Ti       6.72680771       2.24226924       8.96907695        1
N        6.72680771       2.24226924      11.21134619        2
N        6.72680771       0.00000000       8.96907695        2
N        4.48453848       2.24226924       8.96907695        2
N        4.48453848       0.00000000      11.21134619        2
Nb       4.48453848       4.48453848       0.00000000        1
Ta       4.48453848       6.72680771       2.24226924        1
Ti       6.72680771       4.48453848       2.24226924        1
Hf       6.72680771       6.72680771       0.00000000        1
N        6.72680771       6.72680771       2.24226924        2
N        6.72680771       4.48453848       0.00000000        2
N        4.48453848       6.72680771       0.00000000        2
N        4.48453848       4.48453848       2.24226924        2
Hf       4.48453848       4.48453848       4.48453848        1
Ta       4.48453848       6.72680771       6.72680771        1
Ta       6.72680771       4.48453848       6.72680771        1
Zr       6.72680771       6.72680771       4.48453848        1
N        6.72680771       6.72680771       6.72680771        2
N        6.72680771       4.48453848       4.48453848        2
N        4.48453848       6.72680771       4.48453848        2
N        4.48453848       4.48453848       6.72680771        2
Zr       4.48453848       4.48453848       8.96907695        1
Ti       4.48453848       6.72680771      11.21134619        1
Hf       6.72680771       4.48453848      11.21134619        1
Ta       6.72680771       6.72680771       8.96907695        1
N        6.72680771       6.72680771      11.21134619        2
N        6.72680771       4.48453848       8.96907695        2
N        4.48453848       6.72680771       8.96907695        2
N        4.48453848       4.48453848      11.21134619        2
Zr       4.48453848       8.96907695       0.00000000        1
Zr       4.48453848      11.21134619       2.24226924        1
Nb       6.72680771       8.96907695       2.24226924        1
Ta       6.72680771      11.21134619       0.00000000        1
N        6.72680771      11.21134619       2.24226924        2
N        6.72680771       8.96907695       0.00000000        2
N        4.48453848      11.21134619       0.00000000        2
N        4.48453848       8.96907695       2.24226924        2
Ti       4.48453848       8.96907695       4.48453848        1
Ti       4.48453848      11.21134619       6.72680771        1
Hf       6.72680771       8.96907695       6.72680771        1
Zr       6.72680771      11.21134619       4.48453848        1
N        6.72680771      11.21134619       6.72680771        2
N        6.72680771       8.96907695       4.48453848        2
N        4.48453848      11.21134619       4.48453848        2
N        4.48453848       8.96907695       6.72680771        2
Zr       4.48453848       8.96907695       8.96907695        1
Ti       4.48453848      11.21134619      11.21134619        1
Ta       6.72680771       8.96907695      11.21134619        1
Ta       6.72680771      11.21134619       8.96907695        1
N        6.72680771      11.21134619      11.21134619        2
N        6.72680771       8.96907695       8.96907695        2
N        4.48453848      11.21134619       8.96907695        2
N        4.48453848       8.96907695      11.21134619        2
Ta       8.96907695       0.00000000       0.00000000        1
Zr       8.96907695       2.24226924       2.24226924        1
Hf      11.21134619       0.00000000       2.24226924        1
Ti      11.21134619       2.24226924       0.00000000        1
N       11.21134619       2.24226924       2.24226924        2
N       11.21134619       0.00000000       0.00000000        2
N        8.96907695       2.24226924       0.00000000        2
N        8.96907695       0.00000000       2.24226924        2
Ti       8.96907695       0.00000000       4.48453848        1
Nb       8.96907695       2.24226924       6.72680771        1
Ta      11.21134619       0.00000000       6.72680771        1
Hf      11.21134619       2.24226924       4.48453848        1
N       11.21134619       2.24226924       6.72680771        2
N       11.21134619       0.00000000       4.48453848        2
N        8.96907695       2.24226924       4.48453848        2
N        8.96907695       0.00000000       6.72680771        2
Hf       8.96907695       0.00000000       8.96907695        1
Zr       8.96907695       2.24226924      11.21134619        1
Hf      11.21134619       0.00000000      11.21134619        1
Zr      11.21134619       2.24226924       8.96907695        1
N       11.21134619       2.24226924      11.21134619        2
N       11.21134619       0.00000000       8.96907695        2
N        8.96907695       2.24226924       8.96907695        2
N        8.96907695       0.00000000      11.21134619        2
Zr       8.96907695       4.48453848       0.00000000        1
Nb       8.96907695       6.72680771       2.24226924        1
Nb      11.21134619       4.48453848       2.24226924        1
Ta      11.21134619       6.72680771       0.00000000        1
N       11.21134619       6.72680771       2.24226924        2
N       11.21134619       4.48453848       0.00000000        2
N        8.96907695       6.72680771       0.00000000        2
N        8.96907695       4.48453848       2.24226924        2
Nb       8.96907695       4.48453848       4.48453848        1
Hf       8.96907695       6.72680771       6.72680771        1
Hf      11.21134619       4.48453848       6.72680771        1
Hf      11.21134619       6.72680771       4.48453848        1
N       11.21134619       6.72680771       6.72680771        2
N       11.21134619       4.48453848       4.48453848        2
N        8.96907695       6.72680771       4.48453848        2
N        8.96907695       4.48453848       6.72680771        2
Ta       8.96907695       4.48453848       8.96907695        1
Nb       8.96907695       6.72680771      11.21134619        1
Nb      11.21134619       4.48453848      11.21134619        1
Hf      11.21134619       6.72680771       8.96907695        1
N       11.21134619       6.72680771      11.21134619        2
N       11.21134619       4.48453848       8.96907695        2
N        8.96907695       6.72680771       8.96907695        2
N        8.96907695       4.48453848      11.21134619        2
Ta       8.96907695       8.96907695       0.00000000        1
Ta       8.96907695      11.21134619       2.24226924        1
Zr      11.21134619       8.96907695       2.24226924        1
Ti      11.21134619      11.21134619       0.00000000        1
N       11.21134619      11.21134619       2.24226924        2
N       11.21134619       8.96907695       0.00000000        2
N        8.96907695      11.21134619       0.00000000        2
N        8.96907695       8.96907695       2.24226924        2
Ti       8.96907695       8.96907695       4.48453848        1
Nb       8.96907695      11.21134619       6.72680771        1
Nb      11.21134619       8.96907695       6.72680771        1
Zr      11.21134619      11.21134619       4.48453848        1
N       11.21134619      11.21134619       6.72680771        2
N       11.21134619       8.96907695       4.48453848        2
N        8.96907695      11.21134619       4.48453848        2
N        8.96907695       8.96907695       6.72680771        2
Nb       8.96907695       8.96907695       8.96907695        1
Hf       8.96907695      11.21134619      11.21134619        1
Ta      11.21134619       8.96907695      11.21134619        1
Zr      11.21134619      11.21134619       8.96907695        1
N       11.21134619      11.21134619      11.21134619        2
N       11.21134619       8.96907695       8.96907695        2
N        8.96907695      11.21134619       8.96907695        2
N        8.96907695       8.96907695      11.21134619        2
216
Lattice="13.453615425789224 0.0 0.0 0.0 13.453615425789224 0.0 0.0 0.0 13.453615425789224" Properties=species:S:1:pos:R:3:tags:I:1 sqs_abs_alpha=0.12556586270871992 energy=-2238.366879168002 mc_step=250 energy_method=uma rosenbluth_W_new=5.9646725799361375 rosenbluth_W_old=5.774529940189963 pbc="T T T"
Ti       0.00000000       0.00000000       0.00000000        1
Hf       0.00000000       2.24226924       2.24226924        1
Zr       2.24226924       0.00000000       2.24226924        1
Zr       2.24226924       2.24226924       0.00000000        1
N        2.24226924       2.24226924       2.24226924        2
N        2.24226924       0.00000000       0.00000000        2
N        0.00000000       2.24226924       0.00000000        2
N        0.00000000       0.00000000       2.24226924        2
Ti       0.00000000       0.00000000       4.48453848        1
Hf       0.00000000       2.24226924       6.72680771        1
Ta       2.24226924       0.00000000       6.72680771        1
Nb       2.24226924       2.24226924       4.48453848        1
N        2.24226924       2.24226924       6.72680771        2
N        2.24226924       0.00000000       4.48453848        2
N        0.00000000       2.24226924       4.48453848        2
N        0.00000000       0.00000000       6.72680771        2
Ta       0.00000000       0.00000000       8.96907695        1
Nb       0.00000000       2.24226924      11.21134619        1
Ta       2.24226924       0.00000000      11.21134619        1
Ti       2.24226924       2.24226924       8.96907695        1
N        2.24226924       2.24226924      11.21134619        2
N        2.24226924       0.00000000       8.96907695        2
N        0.00000000       2.24226924       8.96907695        2
N        0.00000000       0.00000000      11.21134619        2
Hf       0.00000000       4.48453848       0.00000000        1
Ti       0.00000000       6.72680771       2.24226924        1
Hf       2.24226924       4.48453848       2.24226924        1
Ta       2.24226924       6.72680771       0.00000000        1
N        2.24226924       6.72680771       2.24226924        2
N        2.24226924       4.48453848       0.00000000        2
N        0.00000000       6.72680771       0.00000000        2
N        0.00000000       4.48453848       2.24226924        2
Zr       0.00000000       4.48453848       4.48453848        1
Ta       0.00000000       6.72680771       6.72680771        1
Ti       2.24226924       4.48453848       6.72680771        1
Hf       2.24226924       6.72680771       4.48453848        1
N        2.24226924       6.72680771       6.72680771        2
N        2.24226924       4.48453848       4.48453848        2
N        0.00000000       6.72680771       4.48453848        2
N        0.00000000       4.48453848       6.72680771        2
Zr       0.00000000       4.48453848       8.96907695        1
Ti       0.00000000       6.72680771      11.21134619        1
Nb       2.24226924       4.48453848      11.21134619        1
Hf       2.24226924       6.72680771       8.96907695        1
N        2.24226924       6.72680771      11.21134619        2
N        2.24226924       4.48453848       8.96907695        2
N        0.00000000       6.72680771       8.96907695        2
N        0.00000000       4.48453848      11.21134619        2
Zr       0.00000000       8.96907695       0.00000000        1
Ta       0.00000000      11.21134619       2.24226924        1
Zr       2.24226924       8.96907695       2.24226924        1
Zr       2.24226924      11.21134619       0.00000000        1
N        2.24226924      11.21134619       2.24226924        2
N        2.24226924       8.96907695       0.00000000        2
N        0.00000000      11.21134619       0.00000000        2
N        0.00000000       8.96907695       2.24226924        2
Ta       0.00000000       8.96907695       4.48453848        1
Ti       0.00000000      11.21134619       6.72680771        1
Nb       2.24226924       8.96907695       6.72680771        1
Zr       2.24226924      11.21134619       4.48453848        1
N        2.24226924      11.21134619       6.72680771        2
N        2.24226924       8.96907695       4.48453848        2
N        0.00000000      11.21134619       4.48453848        2
N        0.00000000       8.96907695       6.72680771        2
Ti       0.00000000       8.96907695       8.96907695        1
Ti       0.00000000      11.21134619      11.21134619        1
Nb       2.24226924       8.96907695      11.21134619        1
Ta       2.24226924      11.21134619       8.96907695        1
N        2.24226924      11.21134619      11.21134619        2
N        2.24226924       8.96907695       8.96907695        2
N        0.00000000      11.21134619       8.96907695        2
N        0.00000000       8.96907695      11.21134619        2
Ti       4.48453848       0.00000000       0.00000000        1
Zr       4.48453848       2.24226924       2.24226924        1
Zr       6.72680771       0.00000000       2.24226924        1
Nb       6.72680771       2.24226924       0.00000000        1
N        6.72680771       2.24226924       2.24226924        2
N        6.72680771       0.00000000       0.00000000        2
N        4.48453848       2.24226924       0.00000000        2
N        4.48453848       0.00000000       2.24226924        2
Nb       4.48453848       0.00000000       4.48453848        1
Hf       4.48453848       2.24226924       6.72680771        1
Nb       6.72680771       0.00000000       6.72680771        1
Nb       6.72680771       2.24226924       4.48453848        1
N        6.72680771       2.24226924       6.72680771        2
N        6.72680771       0.00000000       4.48453848        2
N        4.48453848       2.24226924       4.48453848        2
N        4.48453848       0.00000000       6.72680771        2
Zr       4.48453848       0.00000000       8.96907695        1
Nb       4.48453848       2.24226924      11.21134619        1
Hf       6.72680771       0.00000000      11.21134619        1
Ti       6.72680771       2.24226924       8.96907695        1
N        6.72680771       2.24226924      11.21134619        2
N        6.72680771       0.00000000       8.96907695        2
N        4.48453848       2.24226924       8.96907695        2
N        4.48453848       0.00000000      11.21134619        2
Ta       4.48453848       4.48453848       0.00000000        1
Hf       4.48453848       6.72680771       2.24226924        1
Ti       6.72680771       4.48453848       2.24226924        1
Hf       6.72680771       6.72680771       0.00000000        1
N        6.72680771       6.72680771       2.24226924        2
N        6.72680771       4.48453848       0.00000000        2
N        4.48453848       6.72680771       0.00000000        2
N        4.48453848       4.48453848       2.24226924        2
Hf       4.48453848       4.48453848       4.48453848        1
Ta       4.48453848       6.72680771       6.72680771        1
Ta       6.72680771       4.48453848       6.72680771        1
Zr       6.72680771       6.72680771       4.48453848        1
N        6.72680771       6.72680771       6.72680771        2
N        6.72680771       4.48453848       4.48453848        2
N        4.48453848       6.72680771       4.48453848        2
N        4.48453848       4.48453848       6.72680771        2
Zr       4.48453848       4.48453848       8.96907695        1
Ti       4.48453848       6.72680771      11.21134619        1
Hf       6.72680771       4.48453848      11.21134619        1
Ta       6.72680771       6.72680771       8.96907695        1
N        6.72680771       6.72680771      11.21134619        2
N        6.72680771       4.48453848       8.96907695        2
N        4.48453848       6.72680771       8.96907695        2
N        4.48453848       4.48453848      11.21134619        2
Nb       4.48453848       8.96907695       0.00000000        1
Ti       4.48453848      11.21134619       2.24226924        1
Ta       6.72680771       8.96907695       2.24226924        1
Nb       6.72680771      11.21134619       0.00000000        1
N        6.72680771      11.21134619       2.24226924        2
N        6.72680771       8.96907695       0.00000000        2
N        4.48453848      11.21134619       0.00000000        2
N        4.48453848       8.96907695       2.24226924        2
Nb       4.48453848       8.96907695       4.48453848        1
Hf       4.48453848      11.21134619       6.72680771        1
Hf       6.72680771       8.96907695       6.72680771        1
Hf       6.72680771      11.21134619       4.48453848        1
N        6.72680771      11.21134619       6.72680771        2
N        6.72680771       8.96907695       4.48453848        2
N        4.48453848      11.21134619       4.48453848        2
N        4.48453848       8.96907695       6.72680771        2
Zr       4.48453848       8.96907695       8.96907695        1
Ti       4.48453848      11.21134619      11.21134619        1
Ti       6.72680771       8.96907695      11.21134619        1
Ta       6.72680771      11.21134619       8.96907695        1
N        6.72680771      11.21134619      11.21134619        2
N        6.72680771       8.96907695       8.96907695        2
N        4.48453848      11.21134619       8.96907695        2
N        4.48453848       8.96907695      11.21134619        2
Hf       8.96907695       0.00000000       0.00000000        1
Zr       8.96907695       2.24226924       2.24226924        1
Hf      11.21134619       0.00000000       2.24226924        1
Ti      11.21134619       2.24226924       0.00000000        1
N       11.21134619       2.24226924       2.24226924        2
N       11.21134619       0.00000000       0.00000000        2
N        8.96907695       2.24226924       0.00000000        2
N        8.96907695       0.00000000       2.24226924        2
Ti       8.96907695       0.00000000       4.48453848        1
Zr       8.96907695       2.24226924       6.72680771        1
Ta      11.21134619       0.00000000       6.72680771        1
Hf      11.21134619       2.24226924       4.48453848        1
N       11.21134619       2.24226924       6.72680771        2
N       11.21134619       0.00000000       4.48453848        2
N        8.96907695       2.24226924       4.48453848        2
N        8.96907695       0.00000000       6.72680771        2
Ti       8.96907695       0.00000000       8.96907695        1
Nb       8.96907695       2.24226924      11.21134619        1
Zr      11.21134619       0.00000000      11.21134619        1
Ta      11.21134619       2.24226924       8.96907695        1
N       11.21134619       2.24226924      11.21134619        2
N       11.21134619       0.00000000       8.96907695        2
N        8.96907695       2.24226924       8.96907695        2
N        8.96907695       0.00000000      11.21134619        2
Zr       8.96907695       4.48453848       0.00000000        1
Ta       8.96907695       6.72680771       2.24226924        1
Nb      11.21134619       4.48453848       2.24226924        1
Ta      11.21134619       6.72680771       0.00000000        1
N       11.21134619       6.72680771       2.24226924        2
N       11.21134619       4.48453848       0.00000000        2
N        8.96907695       6.72680771       0.00000000        2
N        8.96907695       4.48453848       2.24226924        2
Ta       8.96907695       4.48453848       4.48453848        1
Zr       8.96907695       6.72680771       6.72680771        1
Hf      11.21134619       4.48453848       6.72680771        1
Nb      11.21134619       6.72680771       4.48453848        1
N       11.21134619       6.72680771       6.72680771        2
N       11.21134619       4.48453848       4.48453848        2
N        8.96907695       6.72680771       4.48453848        2
N        8.96907695       4.48453848       6.72680771        2
Ta       8.96907695       4.48453848       8.96907695        1
Ti       8.96907695       6.72680771      11.21134619        1
Zr      11.21134619       4.48453848      11.21134619        1
Nb      11.21134619       6.72680771       8.96907695        1
N       11.21134619       6.72680771      11.21134619        2
N       11.21134619       4.48453848       8.96907695        2
N        8.96907695       6.72680771       8.96907695        2
N        8.96907695       4.48453848      11.21134619        2
Ta       8.96907695       8.96907695       0.00000000        1
Nb       8.96907695      11.21134619       2.24226924        1
Zr      11.21134619       8.96907695       2.24226924        1
Nb      11.21134619      11.21134619       0.00000000        1
N       11.21134619      11.21134619       2.24226924        2
N       11.21134619       8.96907695       0.00000000        2
N        8.96907695      11.21134619       0.00000000        2
N        8.96907695       8.96907695       2.24226924        2
Ti       8.96907695       8.96907695       4.48453848        1
Hf       8.96907695      11.21134619       6.72680771        1
Hf      11.21134619       8.96907695       6.72680771        1
Zr      11.21134619      11.21134619       4.48453848        1
N       11.21134619      11.21134619       6.72680771        2
N       11.21134619       8.96907695       4.48453848        2
N        8.96907695      11.21134619       4.48453848        2
N        8.96907695       8.96907695       6.72680771        2
Nb       8.96907695       8.96907695       8.96907695        1
Hf       8.96907695      11.21134619      11.21134619        1
Nb      11.21134619       8.96907695      11.21134619        1
Ti      11.21134619      11.21134619       8.96907695        1
N       11.21134619      11.21134619      11.21134619        2
N       11.21134619       8.96907695       8.96907695        2
N        8.96907695      11.21134619       8.96907695        2
N        8.96907695       8.96907695      11.21134619        2
216
Lattice="13.453615425789224 0.0 0.0 0.0 13.453615425789224 0.0 0.0 0.0 13.453615425789224" Properties=species:S:1:pos:R:3:tags:I:1 sqs_abs_alpha=0.11646820711755776 energy=-2238.4863904081067 mc_step=300 energy_method=uma rosenbluth_W_new=4.19980200296987 rosenbluth_W_old=4.41333328381403 pbc="T T T"
Ti       0.00000000       0.00000000       0.00000000        1
Hf       0.00000000       2.24226924       2.24226924        1
Nb       2.24226924       0.00000000       2.24226924        1
Hf       2.24226924       2.24226924       0.00000000        1
N        2.24226924       2.24226924       2.24226924        2
N        2.24226924       0.00000000       0.00000000        2
N        0.00000000       2.24226924       0.00000000        2
N        0.00000000       0.00000000       2.24226924        2
Zr       0.00000000       0.00000000       4.48453848        1
Hf       0.00000000       2.24226924       6.72680771        1
Hf       2.24226924       0.00000000       6.72680771        1
Nb       2.24226924       2.24226924       4.48453848        1
N        2.24226924       2.24226924       6.72680771        2
N        2.24226924       0.00000000       4.48453848        2
N        0.00000000       2.24226924       4.48453848        2
N        0.00000000       0.00000000       6.72680771        2
Hf       0.00000000       0.00000000       8.96907695        1
Zr       0.00000000       2.24226924      11.21134619        1
Ta       2.24226924       0.00000000      11.21134619        1
Ti       2.24226924       2.24226924       8.96907695        1
N        2.24226924       2.24226924      11.21134619        2
N        2.24226924       0.00000000       8.96907695        2
N        0.00000000       2.24226924       8.96907695        2
N        0.00000000       0.00000000      11.21134619        2
Hf       0.00000000       4.48453848       0.00000000        1
Ti       0.00000000       6.72680771       2.24226924        1
Ti       2.24226924       4.48453848       2.24226924        1
Ta       2.24226924       6.72680771       0.00000000        1
N        2.24226924       6.72680771       2.24226924        2
N        2.24226924       4.48453848       0.00000000        2
N        0.00000000       6.72680771       0.00000000        2
N        0.00000000       4.48453848       2.24226924        2
Nb       0.00000000       4.48453848       4.48453848        1
Nb       0.00000000       6.72680771       6.72680771        1
Ti       2.24226924       4.48453848       6.72680771        1
Zr       2.24226924       6.72680771       4.48453848        1
N        2.24226924       6.72680771       6.72680771        2
N        2.24226924       4.48453848       4.48453848        2
N        0.00000000       6.72680771       4.48453848        2
N        0.00000000       4.48453848       6.72680771        2
Ta       0.00000000       4.48453848       8.96907695        1
Ti       0.00000000       6.72680771      11.21134619        1
Nb       2.24226924       4.48453848      11.21134619        1
Hf       2.24226924       6.72680771       8.96907695        1
N        2.24226924       6.72680771      11.21134619        2
N        2.24226924       4.48453848       8.96907695        2
N        0.00000000       6.72680771       8.96907695        2
N        0.00000000       4.48453848      11.21134619        2
Hf       0.00000000       8.96907695       0.00000000        1
Nb       0.00000000      11.21134619       2.24226924        1
Zr       2.24226924       8.96907695       2.24226924        1
Zr       2.24226924      11.21134619       0.00000000        1
N        2.24226924      11.21134619       2.24226924        2
N        2.24226924       8.96907695       0.00000000        2
N        0.00000000      11.21134619       0.00000000        2
N        0.00000000       8.96907695       2.24226924        2
Ta       0.00000000       8.96907695       4.48453848        1
Ta       0.00000000      11.21134619       6.72680771        1
Nb       2.24226924       8.96907695       6.72680771        1
Zr       2.24226924      11.21134619       4.48453848        1
N        2.24226924      11.21134619       6.72680771        2
N        2.24226924       8.96907695       4.48453848        2
N        0.00000000      11.21134619       4.48453848        2
N        0.00000000       8.96907695       6.72680771        2
Hf       0.00000000       8.96907695       8.96907695        1
Hf       0.00000000      11.21134619      11.21134619        1
Nb       2.24226924       8.96907695      11.21134619        1
Ti       2.24226924      11.21134619       8.96907695        1
N        2.24226924      11.21134619      11.21134619        2
N        2.24226924       8.96907695       8.96907695        2
N        0.00000000      11.21134619       8.96907695        2
N        0.00000000       8.96907695      11.21134619        2
Ta       4.48453848       0.00000000       0.00000000        1
Zr       4.48453848       2.24226924       2.24226924        1
Zr       6.72680771       0.00000000       2.24226924        1
Ti       6.72680771       2.24226924       0.00000000        1
N        6.72680771       2.24226924       2.24226924        2
N        6.72680771       0.00000000       0.00000000        2
N        4.48453848       2.24226924       0.00000000        2
N        4.48453848       0.00000000       2.24226924        2
Ta       4.48453848       0.00000000       4.48453848        1
Hf       4.48453848       2.24226924       6.72680771        1
Zr       6.72680771       0.00000000       6.72680771        1
Ta       6.72680771       2.24226924       4.48453848        1
N        6.72680771       2.24226924       6.72680771        2
N        6.72680771       0.00000000       4.48453848        2
N        4.48453848       2.24226924       4.48453848        2
N        4.48453848       0.00000000       6.72680771        2
Zr       4.48453848       0.00000000       8.96907695        1
Nb       4.48453848       2.24226924      11.21134619        1
Ta       6.72680771       0.00000000      11.21134619        1
Ti       6.72680771       2.24226924       8.96907695        1
N        6.72680771       2.24226924      11.21134619        2
N        6.72680771       0.00000000       8.96907695        2
N        4.48453848       2.24226924       8.96907695        2
N        4.48453848       0.00000000      11.21134619        2
Ti       4.48453848       4.48453848       0.00000000        1
Hf       4.48453848       6.72680771       2.24226924        1
Ta       6.72680771       4.48453848       2.24226924        1
Hf       6.72680771       6.72680771       0.00000000        1
N        6.72680771       6.72680771       2.24226924        2
N        6.72680771       4.48453848       0.00000000        2
N        4.48453848       6.72680771       0.00000000        2
N        4.48453848       4.48453848       2.24226924        2
Hf       4.48453848       4.48453848       4.48453848        1
Ta       4.48453848       6.72680771       6.72680771        1
Nb       6.72680771       4.48453848       6.72680771        1
Zr       6.72680771       6.72680771       4.48453848        1
N        6.72680771       6.72680771       6.72680771        2
N        6.72680771       4.48453848       4.48453848        2
N        4.48453848       6.72680771       4.48453848        2
N        4.48453848       4.48453848       6.72680771        2
Zr       4.48453848       4.48453848       8.96907695        1
Ti       4.48453848       6.72680771      11.21134619        1
Zr       6.72680771       4.48453848      11.21134619        1
Ti       6.72680771       6.72680771       8.96907695        1
N        6.72680771       6.72680771      11.21134619        2
N        6.72680771       4.48453848       8.96907695        2
N        4.48453848       6.72680771       8.96907695        2
N        4.48453848       4.48453848      11.21134619        2
Nb       4.48453848       8.96907695       0.00000000        1
Ta       4.48453848      11.21134619       2.24226924        1
Nb       6.72680771       8.96907695       2.24226924        1
Ti       6.72680771      11.21134619       0.00000000        1
N        6.72680771      11.21134619       2.24226924        2
N        6.72680771       8.96907695       0.00000000        2
N        4.48453848      11.21134619       0.00000000        2
N        4.48453848       8.96907695       2.24226924        2
Zr       4.48453848       8.96907695       4.48453848        1
Nb       4.48453848      11.21134619       6.72680771        1
Ti       6.72680771       8.96907695       6.72680771        1
Ti       6.72680771      11.21134619       4.48453848        1
N        6.72680771      11.21134619       6.72680771        2
N        6.72680771       8.96907695       4.48453848        2
N        4.48453848      11.21134619       4.48453848        2
N        4.48453848       8.96907695       6.72680771        2
Hf       4.48453848       8.96907695       8.96907695        1
Ti       4.48453848      11.21134619      11.21134619        1
Ta       6.72680771       8.96907695      11.21134619        1
Hf       6.72680771      11.21134619       8.96907695        1
N        6.72680771      11.21134619      11.21134619        2
N        6.72680771       8.96907695       8.96907695        2
N        4.48453848      11.21134619       8.96907695        2
N        4.48453848       8.96907695      11.21134619        2
Hf       8.96907695       0.00000000       0.00000000        1
Zr       8.96907695       2.24226924       2.24226924        1
Hf      11.21134619       0.00000000       2.24226924        1
Ti      11.21134619       2.24226924       0.00000000        1
N       11.21134619       2.24226924       2.24226924        2
N       11.21134619       0.00000000       0.00000000        2
N        8.96907695       2.24226924       0.00000000        2
N        8.96907695       0.00000000       2.24226924        2
Ti       8.96907695       0.00000000       4.48453848        1
Nb       8.96907695       2.24226924       6.72680771        1
Ta      11.21134619       0.00000000       6.72680771        1
Hf      11.21134619       2.24226924       4.48453848        1
N       11.21134619       2.24226924       6.72680771        2
N       11.21134619       0.00000000       4.48453848        2
N        8.96907695       2.24226924       4.48453848        2
N        8.96907695       0.00000000       6.72680771        2
Ti       8.96907695       0.00000000       8.96907695        1
Nb       8.96907695       2.24226924      11.21134619        1
Zr      11.21134619       0.00000000      11.21134619        1
Zr      11.21134619       2.24226924       8.96907695        1
N       11.21134619       2.24226924      11.21134619        2
N       11.21134619       0.00000000       8.96907695        2
N        8.96907695       2.24226924       8.96907695        2
N        8.96907695       0.00000000      11.21134619        2
Ta       8.96907695       4.48453848       0.00000000        1
Nb       8.96907695       6.72680771       2.24226924        1
Zr      11.21134619       4.48453848       2.24226924        1
Ta      11.21134619       6.72680771       0.00000000        1
N       11.21134619       6.72680771       2.24226924        2
N       11.21134619       4.48453848       0.00000000        2
N        8.96907695       6.72680771       0.00000000        2
N        8.96907695       4.48453848       2.24226924        2
Ta       8.96907695       4.48453848       4.48453848        1
Zr       8.96907695       6.72680771       6.72680771        1
Zr      11.21134619       4.48453848       6.72680771        1
Nb      11.21134619       6.72680771       4.48453848        1
N       11.21134619       6.72680771       6.72680771        2
N       11.21134619       4.48453848       4.48453848        2
N        8.96907695       6.72680771       4.48453848        2
N        8.96907695       4.48453848       6.72680771        2
Ta       8.96907695       4.48453848       8.96907695        1
Ti       8.96907695       6.72680771      11.21134619        1
Nb      11.21134619       4.48453848      11.21134619        1
Hf      11.21134619       6.72680771       8.96907695        1
N       11.21134619       6.72680771      11.21134619        2
N       11.21134619       4.48453848       8.96907695        2
N        8.96907695       6.72680771       8.96907695        2
N        8.96907695       4.48453848      11.21134619        2
Ta       8.96907695       8.96907695       0.00000000        1
Nb       8.96907695      11.21134619       2.24226924        1
Zr      11.21134619       8.96907695       2.24226924        1
Ti      11.21134619      11.21134619       0.00000000        1
N       11.21134619      11.21134619       2.24226924        2
N       11.21134619       8.96907695       0.00000000        2
N        8.96907695      11.21134619       0.00000000        2
N        8.96907695       8.96907695       2.24226924        2
Ti       8.96907695       8.96907695       4.48453848        1
Hf       8.96907695      11.21134619       6.72680771        1
Ta      11.21134619       8.96907695       6.72680771        1
Zr      11.21134619      11.21134619       4.48453848        1
N       11.21134619      11.21134619       6.72680771        2
N       11.21134619       8.96907695       4.48453848        2
N        8.96907695      11.21134619       4.48453848        2
N        8.96907695       8.96907695       6.72680771        2
Nb       8.96907695       8.96907695       8.96907695        1
Hf       8.96907695      11.21134619      11.21134619        1
Nb      11.21134619       8.96907695      11.21134619        1
Ta      11.21134619      11.21134619       8.96907695        1
N       11.21134619      11.21134619      11.21134619        2
N       11.21134619       8.96907695       8.96907695        2
N        8.96907695      11.21134619       8.96907695        2
N        8.96907695       8.96907695      11.21134619        2
216
Lattice="13.453615425789224 0.0 0.0 0.0 13.453615425789224 0.0 0.0 0.0 13.453615425789224" Properties=species:S:1:pos:R:3:tags:I:1 sqs_abs_alpha=0.1219699780738742 energy=-2238.2483087585183 mc_step=350 energy_method=uma rosenbluth_W_new=6.24599727699054 rosenbluth_W_old=2.2616485019397135 pbc="T T T"
Nb       0.00000000       0.00000000       0.00000000        1
Ti       0.00000000       2.24226924       2.24226924        1
Nb       2.24226924       0.00000000       2.24226924        1
Zr       2.24226924       2.24226924       0.00000000        1
N        2.24226924       2.24226924       2.24226924        2
N        2.24226924       0.00000000       0.00000000        2
N        0.00000000       2.24226924       0.00000000        2
N        0.00000000       0.00000000       2.24226924        2
Hf       0.00000000       0.00000000       4.48453848        1
Ti       0.00000000       2.24226924       6.72680771        1
Hf       2.24226924       0.00000000       6.72680771        1
Nb       2.24226924       2.24226924       4.48453848        1
N        2.24226924       2.24226924       6.72680771        2
N        2.24226924       0.00000000       4.48453848        2
N        0.00000000       2.24226924       4.48453848        2
N        0.00000000       0.00000000       6.72680771        2
Hf       0.00000000       0.00000000       8.96907695        1
Hf       0.00000000       2.24226924      11.21134619        1
Ti       2.24226924       0.00000000      11.21134619        1
Ta       2.24226924       2.24226924       8.96907695        1
N        2.24226924       2.24226924      11.21134619        2
N        2.24226924       0.00000000       8.96907695        2
N        0.00000000       2.24226924       8.96907695        2
N        0.00000000       0.00000000      11.21134619        2
Hf       0.00000000       4.48453848       0.00000000        1
Ta       0.00000000       6.72680771       2.24226924        1
Nb       2.24226924       4.48453848       2.24226924        1
Ta       2.24226924       6.72680771       0.00000000        1
N        2.24226924       6.72680771       2.24226924        2
N        2.24226924       4.48453848       0.00000000        2
N        0.00000000       6.72680771       0.00000000        2
N        0.00000000       4.48453848       2.24226924        2
Ti       0.00000000       4.48453848       4.48453848        1
Nb       0.00000000       6.72680771       6.72680771        1
Zr       2.24226924       4.48453848       6.72680771        1
Zr       2.24226924       6.72680771       4.48453848        1
N        2.24226924       6.72680771       6.72680771        2
N        2.24226924       4.48453848       4.48453848        2
N        0.00000000       6.72680771       4.48453848        2
N        0.00000000       4.48453848       6.72680771        2
Ta       0.00000000       4.48453848       8.96907695        1
Nb       0.00000000       6.72680771      11.21134619        1
Zr       2.24226924       4.48453848      11.21134619        1
Hf       2.24226924       6.72680771       8.96907695        1
N        2.24226924       6.72680771      11.21134619        2
N        2.24226924       4.48453848       8.96907695        2
N        0.00000000       6.72680771       8.96907695        2
N        0.00000000       4.48453848      11.21134619        2
Nb       0.00000000       8.96907695       0.00000000        1
Hf       0.00000000      11.21134619       2.24226924        1
Ti       2.24226924       8.96907695       2.24226924        1
Nb       2.24226924      11.21134619       0.00000000        1
N        2.24226924      11.21134619       2.24226924        2
N        2.24226924       8.96907695       0.00000000        2
N        0.00000000      11.21134619       0.00000000        2
N        0.00000000       8.96907695       2.24226924        2
Ta       0.00000000       8.96907695       4.48453848        1
Ta       0.00000000      11.21134619       6.72680771        1
Ti       2.24226924       8.96907695       6.72680771        1
Ta       2.24226924      11.21134619       4.48453848        1
N        2.24226924      11.21134619       6.72680771        2
N        2.24226924       8.96907695       4.48453848        2
N        0.00000000      11.21134619       4.48453848        2
N        0.00000000       8.96907695       6.72680771        2
Hf       0.00000000       8.96907695       8.96907695        1
Nb       0.00000000      11.21134619      11.21134619        1
Nb       2.24226924       8.96907695      11.21134619        1
Ti       2.24226924      11.21134619       8.96907695        1
N        2.24226924      11.21134619      11.21134619        2
N        2.24226924       8.96907695       8.96907695        2
N        0.00000000      11.21134619       8.96907695        2
N        0.00000000       8.96907695      11.21134619        2
Ta       4.48453848       0.00000000       0.00000000        1
Zr       4.48453848       2.24226924       2.24226924        1
Zr       6.72680771       0.00000000       2.24226924        1
Nb       6.72680771       2.24226924       0.00000000        1
N        6.72680771       2.24226924       2.24226924        2
N        6.72680771       0.00000000       0.00000000        2
N        4.48453848       2.24226924       0.00000000        2
N        4.48453848       0.00000000       2.24226924        2
Nb       4.48453848       0.00000000       4.48453848        1
Hf       4.48453848       2.24226924       6.72680771        1
Zr       6.72680771       0.00000000       6.72680771        1
Ti       6.72680771       2.24226924       4.48453848        1
N        6.72680771       2.24226924       6.72680771        2
N        6.72680771       0.00000000       4.48453848        2
N        4.48453848       2.24226924       4.48453848        2
N        4.48453848       0.00000000       6.72680771        2
Nb       4.48453848       0.00000000       8.96907695        1
Hf       4.48453848       2.24226924      11.21134619        1
Ta       6.72680771       0.00000000      11.21134619        1
Ti       6.72680771       2.24226924       8.96907695        1
N        6.72680771       2.24226924      11.21134619        2
N        6.72680771       0.00000000       8.96907695        2
N        4.48453848       2.24226924       8.96907695        2
N        4.48453848       0.00000000      11.21134619        2
Ta       4.48453848       4.48453848       0.00000000        1
Ta       4.48453848       6.72680771       2.24226924        1
Zr       6.72680771       4.48453848       2.24226924        1
Ti       6.72680771       6.72680771       0.00000000        1
N        6.72680771       6.72680771       2.24226924        2
N        6.72680771       4.48453848       0.00000000        2
N        4.48453848       6.72680771       0.00000000        2
N        4.48453848       4.48453848       2.24226924        2
Ti       4.48453848       4.48453848       4.48453848        1
Ta       4.48453848       6.72680771       6.72680771        1
Ti       6.72680771       4.48453848       6.72680771        1
Hf       6.72680771       6.72680771       4.48453848        1
N        6.72680771       6.72680771       6.72680771        2
N        6.72680771       4.48453848       4.48453848        2
N        4.48453848       6.72680771       4.48453848        2
N        4.48453848       4.48453848       6.72680771        2
Zr       4.48453848       4.48453848       8.96907695        1
Ti       4.48453848       6.72680771      11.21134619        1
Ti       6.72680771       4.48453848      11.21134619        1
Nb       6.72680771       6.72680771       8.96907695        1
N        6.72680771       6.72680771      11.21134619        2
N        6.72680771       4.48453848       8.96907695        2
N        4.48453848       6.72680771       8.96907695        2
N        4.48453848       4.48453848      11.21134619        2
Ta       4.48453848       8.96907695       0.00000000        1
Hf       4.48453848      11.21134619       2.24226924        1
Hf       6.72680771       8.96907695       2.24226924        1
Ti       6.72680771      11.21134619       0.00000000        1
N        6.72680771      11.21134619       2.24226924        2
N        6.72680771       8.96907695       0.00000000        2
N        4.48453848      11.21134619       0.00000000        2
N        4.48453848       8.96907695       2.24226924        2
Zr       4.48453848       8.96907695       4.48453848        1
Nb       4.48453848      11.21134619       6.72680771        1
Ti       6.72680771       8.96907695       6.72680771        1
Ta       6.72680771      11.21134619       4.48453848        1
N        6.72680771      11.21134619       6.72680771        2
N        6.72680771       8.96907695       4.48453848        2
N        4.48453848      11.21134619       4.48453848        2
N        4.48453848       8.96907695       6.72680771        2
Hf       4.48453848       8.96907695       8.96907695        1
Hf       4.48453848      11.21134619      11.21134619        1
Zr       6.72680771       8.96907695      11.21134619        1
Zr       6.72680771      11.21134619       8.96907695        1
N        6.72680771      11.21134619      11.21134619        2
N        6.72680771       8.96907695       8.96907695        2
N        4.48453848      11.21134619       8.96907695        2
N        4.48453848       8.96907695      11.21134619        2
Hf       8.96907695       0.00000000       0.00000000        1
Zr       8.96907695       2.24226924       2.24226924        1
Ti      11.21134619       0.00000000       2.24226924        1
Zr      11.21134619       2.24226924       0.00000000        1
N       11.21134619       2.24226924       2.24226924        2
N       11.21134619       0.00000000       0.00000000        2
N        8.96907695       2.24226924       0.00000000        2
N        8.96907695       0.00000000       2.24226924        2
Nb       8.96907695       0.00000000       4.48453848        1
Ta       8.96907695       2.24226924       6.72680771        1
Ta      11.21134619       0.00000000       6.72680771        1
Hf      11.21134619       2.24226924       4.48453848        1
N       11.21134619       2.24226924       6.72680771        2
N       11.21134619       0.00000000       4.48453848        2
N        8.96907695       2.24226924       4.48453848        2
N        8.96907695       0.00000000       6.72680771        2
Ti       8.96907695       0.00000000       8.96907695        1
Hf       8.96907695       2.24226924      11.21134619        1
Zr      11.21134619       0.00000000      11.21134619        1
Zr      11.21134619       2.24226924       8.96907695        1
N       11.21134619       2.24226924      11.21134619        2
N       11.21134619       0.00000000       8.96907695        2
N        8.96907695       2.24226924       8.96907695        2
N        8.96907695       0.00000000      11.21134619        2
Nb       8.96907695       4.48453848       0.00000000        1
Nb       8.96907695       6.72680771       2.24226924        1
Zr      11.21134619       4.48453848       2.24226924        1
Ti      11.21134619       6.72680771       0.00000000        1
N       11.21134619       6.72680771       2.24226924        2
N       11.21134619       4.48453848       0.00000000        2
N        8.96907695       6.72680771       0.00000000        2
N        8.96907695       4.48453848       2.24226924        2
Ta       8.96907695       4.48453848       4.48453848        1
Ta       8.96907695       6.72680771       6.72680771        1
Zr      11.21134619       4.48453848       6.72680771        1
Zr      11.21134619       6.72680771       4.48453848        1
N       11.21134619       6.72680771       6.72680771        2
N       11.21134619       4.48453848       4.48453848        2
N        8.96907695       6.72680771       4.48453848        2
N        8.96907695       4.48453848       6.72680771        2
Ta       8.96907695       4.48453848       8.96907695        1
Hf       8.96907695       6.72680771      11.21134619        1
Ti      11.21134619       4.48453848      11.21134619        1
Nb      11.21134619       6.72680771       8.96907695        1
N       11.21134619       6.72680771      11.21134619        2
N       11.21134619       4.48453848       8.96907695        2
N        8.96907695       6.72680771       8.96907695        2
N        8.96907695       4.48453848      11.21134619        2
Hf       8.96907695       8.96907695       0.00000000        1
Ta       8.96907695      11.21134619       2.24226924        1
Zr      11.21134619       8.96907695       2.24226924        1
Ti      11.21134619      11.21134619       0.00000000        1
N       11.21134619      11.21134619       2.24226924        2
N       11.21134619       8.96907695       0.00000000        2
N        8.96907695      11.21134619       0.00000000        2
N        8.96907695       8.96907695       2.24226924        2
Ti       8.96907695       8.96907695       4.48453848        1
Hf       8.96907695      11.21134619       6.72680771        1
Hf      11.21134619       8.96907695       6.72680771        1
Zr      11.21134619      11.21134619       4.48453848        1
N       11.21134619      11.21134619       6.72680771        2
N       11.21134619       8.96907695       4.48453848        2
N        8.96907695      11.21134619       4.48453848        2
N        8.96907695       8.96907695       6.72680771        2
Nb       8.96907695       8.96907695       8.96907695        1
Zr       8.96907695      11.21134619      11.21134619        1
Nb      11.21134619       8.96907695      11.21134619        1
Ta      11.21134619      11.21134619       8.96907695        1
N       11.21134619      11.21134619      11.21134619        2
N       11.21134619       8.96907695       8.96907695        2
N        8.96907695      11.21134619       8.96907695        2
N        8.96907695       8.96907695      11.21134619        2
216
Lattice="13.453615425789224 0.0 0.0 0.0 13.453615425789224 0.0 0.0 0.0 13.453615425789224" Properties=species:S:1:pos:R:3:tags:I:1 sqs_abs_alpha=0.15582054309327034 energy=-2238.544089875182 mc_step=400 energy_method=uma rosenbluth_W_new=3.480492339703807 rosenbluth_W_old=4.020180285973081 pbc="T T T"
Hf       0.00000000       0.00000000       0.00000000        1
Ta       0.00000000       2.24226924       2.24226924        1
Ti       2.24226924       0.00000000       2.24226924        1
Zr       2.24226924       2.24226924       0.00000000        1
N        2.24226924       2.24226924       2.24226924        2
N        2.24226924       0.00000000       0.00000000        2
N        0.00000000       2.24226924       0.00000000        2
N        0.00000000       0.00000000       2.24226924        2
Hf       0.00000000       0.00000000       4.48453848        1
Ti       0.00000000       2.24226924       6.72680771        1
Hf       2.24226924       0.00000000       6.72680771        1
Hf       2.24226924       2.24226924       4.48453848        1
N        2.24226924       2.24226924       6.72680771        2
N        2.24226924       0.00000000       4.48453848        2
N        0.00000000       2.24226924       4.48453848        2
N        0.00000000       0.00000000       6.72680771        2
Zr       0.00000000       0.00000000       8.96907695        1
Ti       0.00000000       2.24226924      11.21134619        1
Nb       2.24226924       0.00000000      11.21134619        1
Ta       2.24226924       2.24226924       8.96907695        1
N        2.24226924       2.24226924      11.21134619        2
N        2.24226924       0.00000000       8.96907695        2
N        0.00000000       2.24226924       8.96907695        2
N        0.00000000       0.00000000      11.21134619        2
Nb       0.00000000       4.48453848       0.00000000        1
Hf       0.00000000       6.72680771       2.24226924        1
Nb       2.24226924       4.48453848       2.24226924        1
Nb       2.24226924       6.72680771       0.00000000        1
N        2.24226924       6.72680771       2.24226924        2
N        2.24226924       4.48453848       0.00000000        2
N        0.00000000       6.72680771       0.00000000        2
N        0.00000000       4.48453848       2.24226924        2
Ti       0.00000000       4.48453848       4.48453848        1
Ta       0.00000000       6.72680771       6.72680771        1
Zr       2.24226924       4.48453848       6.72680771        1
Zr       2.24226924       6.72680771       4.48453848        1
N        2.24226924       6.72680771       6.72680771        2
N        2.24226924       4.48453848       4.48453848        2
N        0.00000000       6.72680771       4.48453848        2
N        0.00000000       4.48453848       6.72680771        2
Nb       0.00000000       4.48453848       8.96907695        1
Nb       0.00000000       6.72680771      11.21134619        1
Nb       2.24226924       4.48453848      11.21134619        1
Zr       2.24226924       6.72680771       8.96907695        1
N        2.24226924       6.72680771      11.21134619        2
N        2.24226924       4.48453848       8.96907695        2
N        0.00000000       6.72680771       8.96907695        2
N        0.00000000       4.48453848      11.21134619        2
Ti       0.00000000       8.96907695       0.00000000        1
Hf       0.00000000      11.21134619       2.24226924        1
Ti       2.24226924       8.96907695       2.24226924        1
Zr       2.24226924      11.21134619       0.00000000        1
N        2.24226924      11.21134619       2.24226924        2
N        2.24226924       8.96907695       0.00000000        2
N        0.00000000      11.21134619       0.00000000        2
N        0.00000000       8.96907695       2.24226924        2
Ta       0.00000000       8.96907695       4.48453848        1
Ta       0.00000000      11.21134619       6.72680771        1
Ti       2.24226924       8.96907695       6.72680771        1
Ta       2.24226924      11.21134619       4.48453848        1
N        2.24226924      11.21134619       6.72680771        2
N        2.24226924       8.96907695       4.48453848        2
N        0.00000000      11.21134619       4.48453848        2
N        0.00000000       8.96907695       6.72680771        2
Hf       0.00000000       8.96907695       8.96907695        1
Nb       0.00000000      11.21134619      11.21134619        1
Ti       2.24226924       8.96907695      11.21134619        1
Hf       2.24226924      11.21134619       8.96907695        1
N        2.24226924      11.21134619      11.21134619        2
N        2.24226924       8.96907695       8.96907695        2
N        0.00000000      11.21134619       8.96907695        2
N        0.00000000       8.96907695      11.21134619        2
Ta       4.48453848       0.00000000       0.00000000        1
Zr       4.48453848       2.24226924       2.24226924        1
Nb       6.72680771       0.00000000       2.24226924        1
Ti       6.72680771       2.24226924       0.00000000        1
N        6.72680771       2.24226924       2.24226924        2
N        6.72680771       0.00000000       0.00000000        2
N        4.48453848       2.24226924       0.00000000        2
N        4.48453848       0.00000000       2.24226924        2
Ti       4.48453848       0.00000000       4.48453848        1
Ta       4.48453848       2.24226924       6.72680771        1
Zr       6.72680771       0.00000000       6.72680771        1
Ta       6.72680771       2.24226924       4.48453848        1
N        6.72680771       2.24226924       6.72680771        2
N        6.72680771       0.00000000       4.48453848        2
N        4.48453848       2.24226924       4.48453848        2
N        4.48453848       0.00000000       6.72680771        2
Nb       4.48453848       0.00000000       8.96907695        1
Zr       4.48453848       2.24226924      11.21134619        1
Zr       6.72680771       0.00000000      11.21134619        1
Hf       6.72680771       2.24226924       8.96907695        1
N        6.72680771       2.24226924      11.21134619        2
N        6.72680771       0.00000000       8.96907695        2
N        4.48453848       2.24226924       8.96907695        2
N        4.48453848       0.00000000      11.21134619        2
Nb       4.48453848       4.48453848       0.00000000        1
Zr       4.48453848       6.72680771       2.24226924        1
Ti       6.72680771       4.48453848       2.24226924        1
Ta       6.72680771       6.72680771       0.00000000        1
N        6.72680771       6.72680771       2.24226924        2
N        6.72680771       4.48453848       0.00000000        2
N        4.48453848       6.72680771       0.00000000        2
N        4.48453848       4.48453848       2.24226924        2
Ta       4.48453848       4.48453848       4.48453848        1
Nb       4.48453848       6.72680771       6.72680771        1
Ti       6.72680771       4.48453848       6.72680771        1
Ta       6.72680771       6.72680771       4.48453848        1
N        6.72680771       6.72680771       6.72680771        2
N        6.72680771       4.48453848       4.48453848        2
N        4.48453848       6.72680771       4.48453848        2
N        4.48453848       4.48453848       6.72680771        2
Zr       4.48453848       4.48453848       8.96907695        1
Zr       4.48453848       6.72680771      11.21134619        1
Ti       6.72680771       4.48453848      11.21134619        1
Nb       6.72680771       6.72680771       8.96907695        1
N        6.72680771       6.72680771      11.21134619        2
N        6.72680771       4.48453848       8.96907695        2
N        4.48453848       6.72680771       8.96907695        2
N        4.48453848       4.48453848      11.21134619        2
Ta       4.48453848       8.96907695       0.00000000        1
Hf       4.48453848      11.21134619       2.24226924        1
Ti       6.72680771       8.96907695       2.24226924        1
Ti       6.72680771      11.21134619       0.00000000        1
N        6.72680771      11.21134619       2.24226924        2
N        6.72680771       8.96907695       0.00000000        2
N        4.48453848      11.21134619       0.00000000        2
N        4.48453848       8.96907695       2.24226924        2
Zr       4.48453848       8.96907695       4.48453848        1
Nb       4.48453848      11.21134619       6.72680771        1
Ti       6.72680771       8.96907695       6.72680771        1
Hf       6.72680771      11.21134619       4.48453848        1
N        6.72680771      11.21134619       6.72680771        2
N        6.72680771       8.96907695       4.48453848        2
N        4.48453848      11.21134619       4.48453848        2
N        4.48453848       8.96907695       6.72680771        2
Hf       4.48453848       8.96907695       8.96907695        1
Hf       4.48453848      11.21134619      11.21134619        1
Nb       6.72680771       8.96907695      11.21134619        1
Zr       6.72680771      11.21134619       8.96907695        1
N        6.72680771      11.21134619      11.21134619        2
N        6.72680771       8.96907695       8.96907695        2
N        4.48453848      11.21134619       8.96907695        2
N        4.48453848       8.96907695      11.21134619        2
Hf       8.96907695       0.00000000       0.00000000        1
Hf       8.96907695       2.24226924       2.24226924        1
Zr      11.21134619       0.00000000       2.24226924        1
Hf      11.21134619       2.24226924       0.00000000        1
N       11.21134619       2.24226924       2.24226924        2
N       11.21134619       0.00000000       0.00000000        2
N        8.96907695       2.24226924       0.00000000        2
N        8.96907695       0.00000000       2.24226924        2
Ta       8.96907695       0.00000000       4.48453848        1
Ta       8.96907695       2.24226924       6.72680771        1
Ta      11.21134619       0.00000000       6.72680771        1
Ti      11.21134619       2.24226924       4.48453848        1
N       11.21134619       2.24226924       6.72680771        2
N       11.21134619       0.00000000       4.48453848        2
N        8.96907695       2.24226924       4.48453848        2
N        8.96907695       0.00000000       6.72680771        2
Ti       8.96907695       0.00000000       8.96907695        1
Nb       8.96907695       2.24226924      11.21134619        1
Zr      11.21134619       0.00000000      11.21134619        1
Zr      11.21134619       2.24226924       8.96907695        1
N       11.21134619       2.24226924      11.21134619        2
N       11.21134619       0.00000000       8.96907695        2
N        8.96907695       2.24226924       8.96907695        2
N        8.96907695       0.00000000      11.21134619        2
Nb       8.96907695       4.48453848       0.00000000        1
Hf       8.96907695       6.72680771       2.24226924        1
Zr      11.21134619       4.48453848       2.24226924        1
Zr      11.21134619       6.72680771       0.00000000        1
N       11.21134619       6.72680771       2.24226924        2
N       11.21134619       4.48453848       0.00000000        2
N        8.96907695       6.72680771       0.00000000        2
N        8.96907695       4.48453848       2.24226924        2
Ta       8.96907695       4.48453848       4.48453848        1
Ta       8.96907695       6.72680771       6.72680771        1
Zr      11.21134619       4.48453848       6.72680771        1
Nb      11.21134619       6.72680771       4.48453848        1
N       11.21134619       6.72680771       6.72680771        2
N       11.21134619       4.48453848       4.48453848        2
N        8.96907695       6.72680771       4.48453848        2
N        8.96907695       4.48453848       6.72680771        2
Ta       8.96907695       4.48453848       8.96907695        1
Hf       8.96907695       6.72680771      11.21134619        1
Nb      11.21134619       4.48453848      11.21134619        1
Hf      11.21134619       6.72680771       8.96907695        1
N       11.21134619       6.72680771      11.21134619        2
N       11.21134619       4.48453848       8.96907695        2
N        8.96907695       6.72680771       8.96907695        2
N        8.96907695       4.48453848      11.21134619        2
Hf       8.96907695       8.96907695       0.00000000        1
Ta       8.96907695      11.21134619       2.24226924        1
Hf      11.21134619       8.96907695       2.24226924        1
Ti      11.21134619      11.21134619       0.00000000        1
N       11.21134619      11.21134619       2.24226924        2
N       11.21134619       8.96907695       0.00000000        2
N        8.96907695      11.21134619       0.00000000        2
N        8.96907695       8.96907695       2.24226924        2
Ti       8.96907695       8.96907695       4.48453848        1
Hf       8.96907695      11.21134619       6.72680771        1
Ti      11.21134619       8.96907695       6.72680771        1
Ti      11.21134619      11.21134619       4.48453848        1
N       11.21134619      11.21134619       6.72680771        2
N       11.21134619       8.96907695       4.48453848        2
N        8.96907695      11.21134619       4.48453848        2
N        8.96907695       8.96907695       6.72680771        2
Nb       8.96907695       8.96907695       8.96907695        1
Zr       8.96907695      11.21134619      11.21134619        1
Nb      11.21134619       8.96907695      11.21134619        1
Ta      11.21134619      11.21134619       8.96907695        1
N       11.21134619      11.21134619      11.21134619        2
N       11.21134619       8.96907695       8.96907695        2
N        8.96907695      11.21134619       8.96907695        2
N        8.96907695       8.96907695      11.21134619        2
216
Lattice="13.453615425789224 0.0 0.0 0.0 13.453615425789224 0.0 0.0 0.0 13.453615425789224" Properties=species:S:1:pos:R:3:tags:I:1 sqs_abs_alpha=0.1127879912295497 energy=-2238.272017414162 mc_step=450 energy_method=uma rosenbluth_W_new=5.165474965510106 rosenbluth_W_old=3.3425948226959976 pbc="T T T"
Hf       0.00000000       0.00000000       0.00000000        1
Ta       0.00000000       2.24226924       2.24226924        1
Ti       2.24226924       0.00000000       2.24226924        1
Zr       2.24226924       2.24226924       0.00000000        1
N        2.24226924       2.24226924       2.24226924        2
N        2.24226924       0.00000000       0.00000000        2
N        0.00000000       2.24226924       0.00000000        2
N        0.00000000       0.00000000       2.24226924        2
Ta       0.00000000       0.00000000       4.48453848        1
Ti       0.00000000       2.24226924       6.72680771        1
Hf       2.24226924       0.00000000       6.72680771        1
Hf       2.24226924       2.24226924       4.48453848        1
N        2.24226924       2.24226924       6.72680771        2
N        2.24226924       0.00000000       4.48453848        2
N        0.00000000       2.24226924       4.48453848        2
N        0.00000000       0.00000000       6.72680771        2
Nb       0.00000000       0.00000000       8.96907695        1
Ti       0.00000000       2.24226924      11.21134619        1
Ta       2.24226924       0.00000000      11.21134619        1
Ti       2.24226924       2.24226924       8.96907695        1
N        2.24226924       2.24226924      11.21134619        2
N        2.24226924       0.00000000       8.96907695        2
N        0.00000000       2.24226924       8.96907695        2
N        0.00000000       0.00000000      11.21134619        2
Nb       0.00000000       4.48453848       0.00000000        1
Hf       0.00000000       6.72680771       2.24226924        1
Nb       2.24226924       4.48453848       2.24226924        1
Nb       2.24226924       6.72680771       0.00000000        1
N        2.24226924       6.72680771       2.24226924        2
N        2.24226924       4.48453848       0.00000000        2
N        0.00000000       6.72680771       0.00000000        2
N        0.00000000       4.48453848       2.24226924        2
Ti       0.00000000       4.48453848       4.48453848        1
Ta       0.00000000       6.72680771       6.72680771        1
Ta       2.24226924       4.48453848       6.72680771        1
Zr       2.24226924       6.72680771       4.48453848        1
N        2.24226924       6.72680771       6.72680771        2
N        2.24226924       4.48453848       4.48453848        2
N        0.00000000       6.72680771       4.48453848        2
N        0.00000000       4.48453848       6.72680771        2
Nb       0.00000000       4.48453848       8.96907695        1
Nb       0.00000000       6.72680771      11.21134619        1
Hf       2.24226924       4.48453848      11.21134619        1
Nb       2.24226924       6.72680771       8.96907695        1
N        2.24226924       6.72680771      11.21134619        2
N        2.24226924       4.48453848       8.96907695        2
N        0.00000000       6.72680771       8.96907695        2
N        0.00000000       4.48453848      11.21134619        2
Zr       0.00000000       8.96907695       0.00000000        1
Zr       0.00000000      11.21134619       2.24226924        1
Ti       2.24226924       8.96907695       2.24226924        1
Ta       2.24226924      11.21134619       0.00000000        1
N        2.24226924      11.21134619       2.24226924        2
N        2.24226924       8.96907695       0.00000000        2
N        0.00000000      11.21134619       0.00000000        2
N        0.00000000       8.96907695       2.24226924        2
Ta       0.00000000       8.96907695       4.48453848        1
Ti       0.00000000      11.21134619       6.72680771        1
Hf       2.24226924       8.96907695       6.72680771        1
Ta       2.24226924      11.21134619       4.48453848        1
N        2.24226924      11.21134619       6.72680771        2
N        2.24226924       8.96907695       4.48453848        2
N        0.00000000      11.21134619       4.48453848        2
N        0.00000000       8.96907695       6.72680771        2
Hf       0.00000000       8.96907695       8.96907695        1
Zr       0.00000000      11.21134619      11.21134619        1
Ti       2.24226924       8.96907695      11.21134619        1
Ti       2.24226924      11.21134619       8.96907695        1
N        2.24226924      11.21134619      11.21134619        2
N        2.24226924       8.96907695       8.96907695        2
N        0.00000000      11.21134619       8.96907695        2
N        0.00000000       8.96907695      11.21134619        2
Ta       4.48453848       0.00000000       0.00000000        1
Zr       4.48453848       2.24226924       2.24226924        1
Nb       6.72680771       0.00000000       2.24226924        1
Zr       6.72680771       2.24226924       0.00000000        1
N        6.72680771       2.24226924       2.24226924        2
N        6.72680771       0.00000000       0.00000000        2
N        4.48453848       2.24226924       0.00000000        2
N        4.48453848       0.00000000       2.24226924        2
Hf       4.48453848       0.00000000       4.48453848        1
Ta       4.48453848       2.24226924       6.72680771        1
Zr       6.72680771       0.00000000       6.72680771        1
Ta       6.72680771       2.24226924       4.48453848        1
N        6.72680771       2.24226924       6.72680771        2
N        6.72680771       0.00000000       4.48453848        2
N        4.48453848       2.24226924       4.48453848        2
N        4.48453848       0.00000000       6.72680771        2
Ti       4.48453848       0.00000000       8.96907695        1
Ti       4.48453848       2.24226924      11.21134619        1
Ta       6.72680771       0.00000000      11.21134619        1
Hf       6.72680771       2.24226924       8.96907695        1
N        6.72680771       2.24226924      11.21134619        2
N        6.72680771       0.00000000       8.96907695        2
N        4.48453848       2.24226924       8.96907695        2
N        4.48453848       0.00000000      11.21134619        2
Zr       4.48453848       4.48453848       0.00000000        1
Hf       4.48453848       6.72680771       2.24226924        1
Ti       6.72680771       4.48453848       2.24226924        1
Hf       6.72680771       6.72680771       0.00000000        1
N        6.72680771       6.72680771       2.24226924        2
N        6.72680771       4.48453848       0.00000000        2
N        4.48453848       6.72680771       0.00000000        2
N        4.48453848       4.48453848       2.24226924        2
Hf       4.48453848       4.48453848       4.48453848        1
Zr       4.48453848       6.72680771       6.72680771        1
Hf       6.72680771       4.48453848       6.72680771        1
Nb       6.72680771       6.72680771       4.48453848        1
N        6.72680771       6.72680771       6.72680771        2
N        6.72680771       4.48453848       4.48453848        2
N        4.48453848       6.72680771       4.48453848        2
N        4.48453848       4.48453848       6.72680771        2
Zr       4.48453848       4.48453848       8.96907695        1
Zr       4.48453848       6.72680771      11.21134619        1
Ti       6.72680771       4.48453848      11.21134619        1
Nb       6.72680771       6.72680771       8.96907695        1
N        6.72680771       6.72680771      11.21134619        2
N        6.72680771       4.48453848       8.96907695        2
N        4.48453848       6.72680771       8.96907695        2
N        4.48453848       4.48453848      11.21134619        2
Ta       4.48453848       8.96907695       0.00000000        1
Hf       4.48453848      11.21134619       2.24226924        1
Nb       6.72680771       8.96907695       2.24226924        1
Zr       6.72680771      11.21134619       0.00000000        1
N        6.72680771      11.21134619       2.24226924        2
N        6.72680771       8.96907695       0.00000000        2
N        4.48453848      11.21134619       0.00000000        2
N        4.48453848       8.96907695       2.24226924        2
Zr       4.48453848       8.96907695       4.48453848        1
Nb       4.48453848      11.21134619       6.72680771        1
Nb       6.72680771       8.96907695       6.72680771        1
Ti       6.72680771      11.21134619       4.48453848        1
N        6.72680771      11.21134619       6.72680771        2
N        6.72680771       8.96907695       4.48453848        2
N        4.48453848      11.21134619       4.48453848        2
N        4.48453848       8.96907695       6.72680771        2
Ti       4.48453848       8.96907695       8.96907695        1
Ta       4.48453848      11.21134619      11.21134619        1
Nb       6.72680771       8.96907695      11.21134619        1
Ti       6.72680771      11.21134619       8.96907695        1
N        6.72680771      11.21134619      11.21134619        2
N        6.72680771       8.96907695       8.96907695        2
N        4.48453848      11.21134619       8.96907695        2
N        4.48453848       8.96907695      11.21134619        2
Hf       8.96907695       0.00000000       0.00000000        1
Hf       8.96907695       2.24226924       2.24226924        1
Zr      11.21134619       0.00000000       2.24226924        1
Zr      11.21134619       2.24226924       0.00000000        1
N       11.21134619       2.24226924       2.24226924        2
N       11.21134619       0.00000000       0.00000000        2
N        8.96907695       2.24226924       0.00000000        2
N        8.96907695       0.00000000       2.24226924        2
Nb       8.96907695       0.00000000       4.48453848        1
Zr       8.96907695       2.24226924       6.72680771        1
Ta      11.21134619       0.00000000       6.72680771        1
Zr      11.21134619       2.24226924       4.48453848        1
N       11.21134619       2.24226924       6.72680771        2
N       11.21134619       0.00000000       4.48453848        2
N        8.96907695       2.24226924       4.48453848        2
N        8.96907695       0.00000000       6.72680771        2
Ti       8.96907695       0.00000000       8.96907695        1
Ta       8.96907695       2.24226924      11.21134619        1
Ti      11.21134619       0.00000000      11.21134619        1
Hf      11.21134619       2.24226924       8.96907695        1
N       11.21134619       2.24226924      11.21134619        2
N       11.21134619       0.00000000       8.96907695        2
N        8.96907695       2.24226924       8.96907695        2
N        8.96907695       0.00000000      11.21134619        2
Ta       8.96907695       4.48453848       0.00000000        1
Ta       8.96907695       6.72680771       2.24226924        1
Ti      11.21134619       4.48453848       2.24226924        1
Zr      11.21134619       6.72680771       0.00000000        1
N       11.21134619       6.72680771       2.24226924        2
N       11.21134619       4.48453848       0.00000000        2
N        8.96907695       6.72680771       0.00000000        2
N        8.96907695       4.48453848       2.24226924        2
Ta       8.96907695       4.48453848       4.48453848        1
Ta       8.96907695       6.72680771       6.72680771        1
Nb      11.21134619       4.48453848       6.72680771        1
Hf      11.21134619       6.72680771       4.48453848        1
N       11.21134619       6.72680771       6.72680771        2
N       11.21134619       4.48453848       4.48453848        2
N        8.96907695       6.72680771       4.48453848        2
N        8.96907695       4.48453848       6.72680771        2
Zr       8.96907695       4.48453848       8.96907695        1
Ti       8.96907695       6.72680771      11.21134619        1
Nb      11.21134619       4.48453848      11.21134619        1
Hf      11.21134619       6.72680771       8.96907695        1
N       11.21134619       6.72680771      11.21134619        2
N       11.21134619       4.48453848       8.96907695        2
N        8.96907695       6.72680771       8.96907695        2
N        8.96907695       4.48453848      11.21134619        2
Zr       8.96907695       8.96907695       0.00000000        1
Nb       8.96907695      11.21134619       2.24226924        1
Hf      11.21134619       8.96907695       2.24226924        1
Ti      11.21134619      11.21134619       0.00000000        1
N       11.21134619      11.21134619       2.24226924        2
N       11.21134619       8.96907695       0.00000000        2
N        8.96907695      11.21134619       0.00000000        2
N        8.96907695       8.96907695       2.24226924        2
Hf       8.96907695       8.96907695       4.48453848        1
Hf       8.96907695      11.21134619       6.72680771        1
Ti      11.21134619       8.96907695       6.72680771        1
Nb      11.21134619      11.21134619       4.48453848        1
N       11.21134619      11.21134619       6.72680771        2
N       11.21134619       8.96907695       4.48453848        2
N        8.96907695      11.21134619       4.48453848        2
N        8.96907695       8.96907695       6.72680771        2
Nb       8.96907695       8.96907695       8.96907695        1
Zr       8.96907695      11.21134619      11.21134619        1
Nb      11.21134619       8.96907695      11.21134619        1
Ta      11.21134619      11.21134619       8.96907695        1
N       11.21134619      11.21134619      11.21134619        2
N       11.21134619       8.96907695       8.96907695        2
N        8.96907695      11.21134619       8.96907695        2
N        8.96907695       8.96907695      11.21134619        2
216
Lattice="13.453615425789224 0.0 0.0 0.0 13.453615425789224 0.0 0.0 0.0 13.453615425789224" Properties=species:S:1:pos:R:3:tags:I:1 sqs_abs_alpha=0.0980536346770113 energy=-2238.2359332965093 mc_step=500 energy_method=uma rosenbluth_W_new=4.242564778503242 rosenbluth_W_old=2.448203654721204 pbc="T T T"
Hf       0.00000000       0.00000000       0.00000000        1
Ti       0.00000000       2.24226924       2.24226924        1
Ti       2.24226924       0.00000000       2.24226924        1
Ta       2.24226924       2.24226924       0.00000000        1
N        2.24226924       2.24226924       2.24226924        2
N        2.24226924       0.00000000       0.00000000        2
N        0.00000000       2.24226924       0.00000000        2
N        0.00000000       0.00000000       2.24226924        2
Ta       0.00000000       0.00000000       4.48453848        1
Zr       0.00000000       2.24226924       6.72680771        1
Hf       2.24226924       0.00000000       6.72680771        1
Ta       2.24226924       2.24226924       4.48453848        1
N        2.24226924       2.24226924       6.72680771        2
N        2.24226924       0.00000000       4.48453848        2
N        0.00000000       2.24226924       4.48453848        2
N        0.00000000       0.00000000       6.72680771        2
Ta       0.00000000       0.00000000       8.96907695        1
Ti       0.00000000       2.24226924      11.21134619        1
Zr       2.24226924       0.00000000      11.21134619        1
Zr       2.24226924       2.24226924       8.96907695        1
N        2.24226924       2.24226924      11.21134619        2
N        2.24226924       0.00000000       8.96907695        2
N        0.00000000       2.24226924       8.96907695        2
N        0.00000000       0.00000000      11.21134619        2
Nb       0.00000000       4.48453848       0.00000000        1
Hf       0.00000000       6.72680771       2.24226924        1
Ti       2.24226924       4.48453848       2.24226924        1
Nb       2.24226924       6.72680771       0.00000000        1
N        2.24226924       6.72680771       2.24226924        2
N        2.24226924       4.48453848       0.00000000        2
N        0.00000000       6.72680771       0.00000000        2
N        0.00000000       4.48453848       2.24226924        2
Nb       0.00000000       4.48453848       4.48453848        1
Ta       0.00000000       6.72680771       6.72680771        1
Ti       2.24226924       4.48453848       6.72680771        1
Zr       2.24226924       6.72680771       4.48453848        1
N        2.24226924       6.72680771       6.72680771        2
N        2.24226924       4.48453848       4.48453848        2
N        0.00000000       6.72680771       4.48453848        2
N        0.00000000       4.48453848       6.72680771        2
Ta       0.00000000       4.48453848       8.96907695        1
Nb       0.00000000       6.72680771      11.21134619        1
Ta       2.24226924       4.48453848      11.21134619        1
Nb       2.24226924       6.72680771       8.96907695        1
N        2.24226924       6.72680771      11.21134619        2
N        2.24226924       4.48453848       8.96907695        2
N        0.00000000       6.72680771       8.96907695        2
N        0.00000000       4.48453848      11.21134619        2
Zr       0.00000000       8.96907695       0.00000000        1
Zr       0.00000000      11.21134619       2.24226924        1
Ti       2.24226924       8.96907695       2.24226924        1
Hf       2.24226924      11.21134619       0.00000000        1
N        2.24226924      11.21134619       2.24226924        2
N        2.24226924       8.96907695       0.00000000        2
N        0.00000000      11.21134619       0.00000000        2
N        0.00000000       8.96907695       2.24226924        2
Ti       0.00000000       8.96907695       4.48453848        1
Ti       0.00000000      11.21134619       6.72680771        1
Zr       2.24226924       8.96907695       6.72680771        1
Ta       2.24226924      11.21134619       4.48453848        1
N        2.24226924      11.21134619       6.72680771        2
N        2.24226924       8.96907695       4.48453848        2
N        0.00000000      11.21134619       4.48453848        2
N        0.00000000       8.96907695       6.72680771        2
Hf       0.00000000       8.96907695       8.96907695        1
Hf       0.00000000      11.21134619      11.21134619        1
Ta       2.24226924       8.96907695      11.21134619        1
Hf       2.24226924      11.21134619       8.96907695        1
N        2.24226924      11.21134619      11.21134619        2
N        2.24226924       8.96907695       8.96907695        2
N        0.00000000      11.21134619       8.96907695        2
N        0.00000000       8.96907695      11.21134619        2
Nb       4.48453848       0.00000000       0.00000000        1
Zr       4.48453848       2.24226924       2.24226924        1
Hf       6.72680771       0.00000000       2.24226924        1
Ta       6.72680771       2.24226924       0.00000000        1
N        6.72680771       2.24226924       2.24226924        2
N        6.72680771       0.00000000       0.00000000        2
N        4.48453848       2.24226924       0.00000000        2
N        4.48453848       0.00000000       2.24226924        2
Ti       4.48453848       0.00000000       4.48453848        1
Ta       4.48453848       2.24226924       6.72680771        1
Nb       6.72680771       0.00000000       6.72680771        1
Nb       6.72680771       2.24226924       4.48453848        1
N        6.72680771       2.24226924       6.72680771        2
N        6.72680771       0.00000000       4.48453848        2
N        4.48453848       2.24226924       4.48453848        2
N        4.48453848       0.00000000       6.72680771        2
Ti       4.48453848       0.00000000       8.96907695        1
Ti       4.48453848       2.24226924      11.21134619        1
Zr       6.72680771       0.00000000      11.21134619        1
Hf       6.72680771       2.24226924       8.96907695        1
N        6.72680771       2.24226924      11.21134619        2
N        6.72680771       0.00000000       8.96907695        2
N        4.48453848       2.24226924       8.96907695        2
N        4.48453848       0.00000000      11.21134619        2
Zr       4.48453848       4.48453848       0.00000000        1
Ti       4.48453848       6.72680771       2.24226924        1
Hf       6.72680771       4.48453848       2.24226924        1
Ta       6.72680771       6.72680771       0.00000000        1
N        6.72680771       6.72680771       2.24226924        2
N        6.72680771       4.48453848       0.00000000        2
N        4.48453848       6.72680771       0.00000000        2
N        4.48453848       4.48453848       2.24226924        2
Hf       4.48453848       4.48453848       4.48453848        1
Zr       4.48453848       6.72680771       6.72680771        1
Zr       6.72680771       4.48453848       6.72680771        1
Nb       6.72680771       6.72680771       4.48453848        1
N        6.72680771       6.72680771       6.72680771        2
N        6.72680771       4.48453848       4.48453848        2
N        4.48453848       6.72680771       4.48453848        2
N        4.48453848       4.48453848       6.72680771        2
Nb       4.48453848       4.48453848       8.96907695        1
Zr       4.48453848       6.72680771      11.21134619        1
Ti       6.72680771       4.48453848      11.21134619        1
Nb       6.72680771       6.72680771       8.96907695        1
N        6.72680771       6.72680771      11.21134619        2
N        6.72680771       4.48453848       8.96907695        2
N        4.48453848       6.72680771       8.96907695        2
N        4.48453848       4.48453848      11.21134619        2
Ta       4.48453848       8.96907695       0.00000000        1
Hf       4.48453848      11.21134619       2.24226924        1
Nb       6.72680771       8.96907695       2.24226924        1
Zr       6.72680771      11.21134619       0.00000000        1
N        6.72680771      11.21134619       2.24226924        2
N        6.72680771       8.96907695       0.00000000        2
N        4.48453848      11.21134619       0.00000000        2
N        4.48453848       8.96907695       2.24226924        2
Nb       4.48453848       8.96907695       4.48453848        1
Ta       4.48453848      11.21134619       6.72680771        1
Ti       6.72680771       8.96907695       6.72680771        1
Hf       6.72680771      11.21134619       4.48453848        1
N        6.72680771      11.21134619       6.72680771        2
N        6.72680771       8.96907695       4.48453848        2
N        4.48453848      11.21134619       4.48453848        2
N        4.48453848       8.96907695       6.72680771        2
Hf       4.48453848       8.96907695       8.96907695        1
Ta       4.48453848      11.21134619      11.21134619        1
Ti       6.72680771       8.96907695      11.21134619        1
Ta       6.72680771      11.21134619       8.96907695        1
N        6.72680771      11.21134619      11.21134619        2
N        6.72680771       8.96907695       8.96907695        2
N        4.48453848      11.21134619       8.96907695        2
N        4.48453848       8.96907695      11.21134619        2
Ti       8.96907695       0.00000000       0.00000000        1
Hf       8.96907695       2.24226924       2.24226924        1
Zr      11.21134619       0.00000000       2.24226924        1
Nb      11.21134619       2.24226924       0.00000000        1
N       11.21134619       2.24226924       2.24226924        2
N       11.21134619       0.00000000       0.00000000        2
N        8.96907695       2.24226924       0.00000000        2
N        8.96907695       0.00000000       2.24226924        2
Ti       8.96907695       0.00000000       4.48453848        1
Zr       8.96907695       2.24226924       6.72680771        1
Ta      11.21134619       0.00000000       6.72680771        1
Hf      11.21134619       2.24226924       4.48453848        1
N       11.21134619       2.24226924       6.72680771        2
N       11.21134619       0.00000000       4.48453848        2
N        8.96907695       2.24226924       4.48453848        2
N        8.96907695       0.00000000       6.72680771        2
Ta       8.96907695       0.00000000       8.96907695        1
Zr       8.96907695       2.24226924      11.21134619        1
Ti      11.21134619       0.00000000      11.21134619        1
Hf      11.21134619       2.24226924       8.96907695        1
N       11.21134619       2.24226924      11.21134619        2
N       11.21134619       0.00000000       8.96907695        2
N        8.96907695       2.24226924       8.96907695        2
N        8.96907695       0.00000000      11.21134619        2
Nb       8.96907695       4.48453848       0.00000000        1
Nb       8.96907695       6.72680771       2.24226924        1
Hf      11.21134619       4.48453848       2.24226924        1
Ti      11.21134619       6.72680771       0.00000000        1
N       11.21134619       6.72680771       2.24226924        2
N       11.21134619       4.48453848       0.00000000        2
N        8.96907695       6.72680771       0.00000000        2
N        8.96907695       4.48453848       2.24226924        2
Nb       8.96907695       4.48453848       4.48453848        1
Zr       8.96907695       6.72680771       6.72680771        1
Ta      11.21134619       4.48453848       6.72680771        1
Zr      11.21134619       6.72680771       4.48453848        1
N       11.21134619       6.72680771       6.72680771        2
N       11.21134619       4.48453848       4.48453848        2
N        8.96907695       6.72680771       4.48453848        2
N        8.96907695       4.48453848       6.72680771        2
Zr       8.96907695       4.48453848       8.96907695        1
Zr       8.96907695       6.72680771      11.21134619        1
Nb      11.21134619       4.48453848      11.21134619        1
Hf      11.21134619       6.72680771       8.96907695        1
N       11.21134619       6.72680771      11.21134619        2
N       11.21134619       4.48453848       8.96907695        2
N        8.96907695       6.72680771       8.96907695        2
N        8.96907695       4.48453848      11.21134619        2
Hf       8.96907695       8.96907695       0.00000000        1
Nb       8.96907695      11.21134619       2.24226924        1
Hf      11.21134619       8.96907695       2.24226924        1
Ti      11.21134619      11.21134619       0.00000000        1
N       11.21134619      11.21134619       2.24226924        2
N       11.21134619       8.96907695       0.00000000        2
N        8.96907695      11.21134619       0.00000000        2
N        8.96907695       8.96907695       2.24226924        2
Ti       8.96907695       8.96907695       4.48453848        1
Zr       8.96907695      11.21134619       6.72680771        1
Ti      11.21134619       8.96907695       6.72680771        1
Nb      11.21134619      11.21134619       4.48453848        1
N       11.21134619      11.21134619       6.72680771        2
N       11.21134619       8.96907695       4.48453848        2
N        8.96907695      11.21134619       4.48453848        2
N        8.96907695       8.96907695       6.72680771        2
Ta       8.96907695       8.96907695       8.96907695        1
Hf       8.96907695      11.21134619      11.21134619        1
Nb      11.21134619       8.96907695      11.21134619        1
Ta      11.21134619      11.21134619       8.96907695        1
N       11.21134619      11.21134619      11.21134619        2
N       11.21134619       8.96907695       8.96907695        2
N        8.96907695      11.21134619       8.96907695        2
N        8.96907695       8.96907695      11.21134619        2
