216
Lattice="13.453615425789224 0.0 0.0 0.0 13.453615425789224 0.0 0.0 0.0 13.453615425789224" Properties=species:S:1:pos:R:3:tags:I:1 sqs_abs_alpha=0.10710069151627588 energy=-2238.3285627142463 mc_step=100 energy_method=uma rosenbluth_W_new=3.032955477377823 rosenbluth_W_old=3.0166031892899636 pbc="T T T"
Ti       0.00000000       0.00000000       0.00000000        1
Ti       0.00000000       2.24226924       2.24226924        1
Ta       2.24226924       0.00000000       2.24226924        1
Nb       2.24226924       2.24226924       0.00000000        1
N        2.24226924       2.24226924       2.24226924        2
N        2.24226924       0.00000000       0.00000000        2
N        0.00000000       2.24226924       0.00000000        2
N        0.00000000       0.00000000       2.24226924        2
Zr       0.00000000       0.00000000       4.48453848        1
Zr       0.00000000       2.24226924       6.72680771        1
Ti       2.24226924       0.00000000       6.72680771        1
Ti       2.24226924       2.24226924       4.48453848        1
N        2.24226924       2.24226924       6.72680771        2
N        2.24226924       0.00000000       4.48453848        2
N        0.00000000       2.24226924       4.48453848        2
N        0.00000000       0.00000000       6.72680771        2
Nb       0.00000000       0.00000000       8.96907695        1
Ti       0.00000000       2.24226924      11.21134619        1
Zr       2.24226924       0.00000000      11.21134619        1
Hf       2.24226924       2.24226924       8.96907695        1
N        2.24226924       2.24226924      11.21134619        2
N        2.24226924       0.00000000       8.96907695        2
N        0.00000000       2.24226924       8.96907695        2
N        0.00000000       0.00000000      11.21134619        2
Ti       0.00000000       4.48453848       0.00000000        1
Ta       0.00000000       6.72680771       2.24226924        1
Zr       2.24226924       4.48453848       2.24226924        1
Hf       2.24226924       6.72680771       0.00000000        1
N        2.24226924       6.72680771       2.24226924        2
N        2.24226924       4.48453848       0.00000000        2
N        0.00000000       6.72680771       0.00000000        2
N        0.00000000       4.48453848       2.24226924        2
Ta       0.00000000       4.48453848       4.48453848        1
Ta       0.00000000       6.72680771       6.72680771        1
Ta       2.24226924       4.48453848       6.72680771        1
Nb       2.24226924       6.72680771       4.48453848        1
N        2.24226924       6.72680771       6.72680771        2
N        2.24226924       4.48453848       4.48453848        2
N        0.00000000       6.72680771       4.48453848        2
N        0.00000000       4.48453848       6.72680771        2
Nb       0.00000000       4.48453848       8.96907695        1
Ti       0.00000000       6.72680771      11.21134619        1
Hf       2.24226924       4.48453848      11.21134619        1
Ta       2.24226924       6.72680771       8.96907695        1
N        2.24226924       6.72680771      11.21134619        2
N        2.24226924       4.48453848       8.96907695        2
N        0.00000000       6.72680771       8.96907695        2
N        0.00000000       4.48453848      11.21134619        2
Zr       0.00000000       8.96907695       0.00000000        1
Ti       0.00000000      11.21134619       2.24226924        1
Nb       2.24226924       8.96907695       2.24226924        1
Ti       2.24226924      11.21134619       0.00000000        1
N        2.24226924      11.21134619       2.24226924        2
N        2.24226924       8.96907695       0.00000000        2
N        0.00000000      11.21134619       0.00000000        2
N        0.00000000       8.96907695       2.24226924        2
Ta       0.00000000       8.96907695       4.48453848        1
Ti       0.00000000      11.21134619       6.72680771        1
Zr       2.24226924       8.96907695       6.72680771        1
Hf       2.24226924      11.21134619       4.48453848        1
N        2.24226924      11.21134619       6.72680771        2
N        2.24226924       8.96907695       4.48453848        2
N        0.00000000      11.21134619       4.48453848        2
N        0.00000000       8.96907695       6.72680771        2
Hf       0.00000000       8.96907695       8.96907695        1
Nb       0.00000000      11.21134619      11.21134619        1
Ta       2.24226924       8.96907695      11.21134619        1
Hf       2.24226924      11.21134619       8.96907695        1
N        2.24226924      11.21134619      11.21134619        2
N        2.24226924       8.96907695       8.96907695        2
N        0.00000000      11.21134619       8.96907695        2
N        0.00000000       8.96907695      11.21134619        2
Zr       4.48453848       0.00000000       0.00000000        1
Nb       4.48453848       2.24226924       2.24226924        1
Ti       6.72680771       0.00000000       2.24226924        1
Zr       6.72680771       2.24226924       0.00000000        1
N        6.72680771       2.24226924       2.24226924        2
N        6.72680771       0.00000000       0.00000000        2
N        4.48453848       2.24226924       0.00000000        2
N        4.48453848       0.00000000       2.24226924        2
Ta       4.48453848       0.00000000       4.48453848        1
Ti       4.48453848       2.24226924       6.72680771        1
Ta       6.72680771       0.00000000       6.72680771        1
Hf       6.72680771       2.24226924       4.48453848        1
N        6.72680771       2.24226924       6.72680771        2
N        6.72680771       0.00000000       4.48453848        2
N        4.48453848       2.24226924       4.48453848        2
N        4.48453848       0.00000000       6.72680771        2
Zr       4.48453848       0.00000000       8.96907695        1
Nb       4.48453848       2.24226924      11.21134619        1
Ta       6.72680771       0.00000000      11.21134619        1
Ta       6.72680771       2.24226924       8.96907695        1
N        6.72680771       2.24226924      11.21134619        2
N        6.72680771       0.00000000       8.96907695        2
N        4.48453848       2.24226924       8.96907695        2
N        4.48453848       0.00000000      11.21134619        2
Nb       4.48453848       4.48453848       0.00000000        1
Ti       4.48453848       6.72680771       2.24226924        1
Ti       6.72680771       4.48453848       2.24226924        1
Nb       6.72680771       6.72680771       0.00000000        1
N        6.72680771       6.72680771       2.24226924        2
N        6.72680771       4.48453848       0.00000000        2
N        4.48453848       6.72680771       0.00000000        2
N        4.48453848       4.48453848       2.24226924        2
Hf       4.48453848       4.48453848       4.48453848        1
Hf       4.48453848       6.72680771       6.72680771        1
Ti       6.72680771       4.48453848       6.72680771        1
Ta       6.72680771       6.72680771       4.48453848        1
N        6.72680771       6.72680771       6.72680771        2
N        6.72680771       4.48453848       4.48453848        2
N        4.48453848       6.72680771       4.48453848        2
N        4.48453848       4.48453848       6.72680771        2
Hf       4.48453848       4.48453848       8.96907695        1
Hf       4.48453848       6.72680771      11.21134619        1
Hf       6.72680771       4.48453848      11.21134619        1
Zr       6.72680771       6.72680771       8.96907695        1
N        6.72680771       6.72680771      11.21134619        2
N        6.72680771       4.48453848       8.96907695        2
N        4.48453848       6.72680771       8.96907695        2
N        4.48453848       4.48453848      11.21134619        2
Zr       4.48453848       8.96907695       0.00000000        1
Zr       4.48453848      11.21134619       2.24226924        1
Ta       6.72680771       8.96907695       2.24226924        1
Zr       6.72680771      11.21134619       0.00000000        1
N        6.72680771      11.21134619       2.24226924        2
N        6.72680771       8.96907695       0.00000000        2
N        4.48453848      11.21134619       0.00000000        2
N        4.48453848       8.96907695       2.24226924        2
Hf       4.48453848       8.96907695       4.48453848        1
Nb       4.48453848      11.21134619       6.72680771        1
Nb       6.72680771       8.96907695       6.72680771        1
Ti       6.72680771      11.21134619       4.48453848        1
N        6.72680771      11.21134619       6.72680771        2
N        6.72680771       8.96907695       4.48453848        2
N        4.48453848      11.21134619       4.48453848        2
N        4.48453848       8.96907695       6.72680771        2
Ti       4.48453848       8.96907695       8.96907695        1
Ti       4.48453848      11.21134619      11.21134619        1
Hf       6.72680771       8.96907695      11.21134619        1
Hf       6.72680771      11.21134619       8.96907695        1
N        6.72680771      11.21134619      11.21134619        2
N        6.72680771       8.96907695       8.96907695        2
N        4.48453848      11.21134619       8.96907695        2
N        4.48453848       8.96907695      11.21134619        2
Ti       8.96907695       0.00000000       0.00000000        1
Ta       8.96907695       2.24226924       2.24226924        1
Ta      11.21134619       0.00000000       2.24226924        1
Hf      11.21134619       2.24226924       0.00000000        1
N       11.21134619       2.24226924       2.24226924        2
N       11.21134619       0.00000000       0.00000000        2
N        8.96907695       2.24226924       0.00000000        2
N        8.96907695       0.00000000       2.24226924        2
Nb       8.96907695       0.00000000       4.48453848        1
Hf       8.96907695       2.24226924       6.72680771        1
Zr      11.21134619       0.00000000       6.72680771        1
Zr      11.21134619       2.24226924       4.48453848        1
N       11.21134619       2.24226924       6.72680771        2
N       11.21134619       0.00000000       4.48453848        2
N        8.96907695       2.24226924       4.48453848        2
N        8.96907695       0.00000000       6.72680771        2
Hf       8.96907695       0.00000000       8.96907695        1
Nb       8.96907695       2.24226924      11.21134619        1
Ta      11.21134619       0.00000000      11.21134619        1
Nb      11.21134619       2.24226924       8.96907695        1
N       11.21134619       2.24226924      11.21134619        2
N       11.21134619       0.00000000       8.96907695        2
N        8.96907695       2.24226924       8.96907695        2
N        8.96907695       0.00000000      11.21134619        2
Ta       8.96907695       4.48453848       0.00000000        1
Zr       8.96907695       6.72680771       2.24226924        1
Hf      11.21134619       4.48453848       2.24226924        1
Zr      11.21134619       6.72680771       0.00000000        1
N       11.21134619       6.72680771       2.24226924        2
N       11.21134619       4.48453848       0.00000000        2
N        8.96907695       6.72680771       0.00000000        2
N        8.96907695       4.48453848       2.24226924        2
Nb       8.96907695       4.48453848       4.48453848        1
Ta       8.96907695       6.72680771       6.72680771        1
Nb      11.21134619       4.48453848       6.72680771        1
Zr      11.21134619       6.72680771       4.48453848        1
N       11.21134619       6.72680771       6.72680771        2
N       11.21134619       4.48453848       4.48453848        2
N        8.96907695       6.72680771       4.48453848        2
N        8.96907695       4.48453848       6.72680771        2
Zr       8.96907695       4.48453848       8.96907695        1
Ta       8.96907695       6.72680771      11.21134619        1
Ta      11.21134619       4.48453848      11.21134619        1
Nb      11.21134619       6.72680771       8.96907695        1
N       11.21134619       6.72680771      11.21134619        2
N       11.21134619       4.48453848       8.96907695        2
N        8.96907695       6.72680771       8.96907695        2
N        8.96907695       4.48453848      11.21134619        2
Nb       8.96907695       8.96907695       0.00000000        1
Zr       8.96907695      11.21134619       2.24226924        1
Nb      11.21134619       8.96907695       2.24226924        1
Zr      11.21134619      11.21134619       0.00000000        1
N       11.21134619      11.21134619       2.24226924        2
N       11.21134619       8.96907695       0.00000000        2
N        8.96907695      11.21134619       0.00000000        2
N        8.96907695       8.96907695       2.24226924        2
Hf       8.96907695       8.96907695       4.48453848        1
Zr       8.96907695      11.21134619       6.72680771        1
Hf      11.21134619       8.96907695       6.72680771        1
Ti      11.21134619      11.21134619       4.48453848        1
N       11.21134619      11.21134619       6.72680771        2
N       11.21134619       8.96907695       4.48453848        2
N        8.96907695      11.21134619       4.48453848        2
N        8.96907695       8.96907695       6.72680771        2
Ti       8.96907695       8.96907695       8.96907695        1
Nb       8.96907695      11.21134619      11.21134619        1
Hf      11.21134619       8.96907695      11.21134619        1
Ti      11.21134619      11.21134619       8.96907695        1
N       11.21134619      11.21134619      11.21134619        2
N       11.21134619       8.96907695       8.96907695        2
N        8.96907695      11.21134619       8.96907695        2
N        8.96907695       8.96907695      11.21134619        2
216
Lattice="13.453615425789224 0.0 0.0 0.0 13.453615425789224 0.0 0.0 0.0 13.453615425789224" Properties=species:S:1:pos:R:3:tags:I:1 sqs_abs_alpha=0.1374970484061393 energy=-2238.41592154194 mc_step=150 energy_method=uma rosenbluth_W_new=5.817481087266224 rosenbluth_W_old=5.640562669429155 pbc="T T T"
Hf       0.00000000       0.00000000       0.00000000        1
Ti       0.00000000       2.24226924       2.24226924        1
Ta       2.24226924       0.00000000       2.24226924        1
Ta       2.24226924       2.24226924       0.00000000        1
N        2.24226924       2.24226924       2.24226924        2
N        2.24226924       0.00000000       0.00000000        2
N        0.00000000       2.24226924       0.00000000        2
N        0.00000000       0.00000000       2.24226924        2
Zr       0.00000000       0.00000000       4.48453848        1
Ta       0.00000000       2.24226924       6.72680771        1
Zr       2.24226924       0.00000000       6.72680771        1
Nb       2.24226924       2.24226924       4.48453848        1
N        2.24226924       2.24226924       6.72680771        2
N        2.24226924       0.00000000       4.48453848        2
N        0.00000000       2.24226924       4.48453848        2
N        0.00000000       0.00000000       6.72680771        2
Hf       0.00000000       0.00000000       8.96907695        1
Ti       0.00000000       2.24226924      11.21134619        1
Ti       2.24226924       0.00000000      11.21134619        1
Hf       2.24226924       2.24226924       8.96907695        1
N        2.24226924       2.24226924      11.21134619        2
N        2.24226924       0.00000000       8.96907695        2
N        0.00000000       2.24226924       8.96907695        2
N        0.00000000       0.00000000      11.21134619        2
Ti       0.00000000       4.48453848       0.00000000        1
Nb       0.00000000       6.72680771       2.24226924        1
Zr       2.24226924       4.48453848       2.24226924        1
Hf       2.24226924       6.72680771       0.00000000        1
N        2.24226924       6.72680771       2.24226924        2
N        2.24226924       4.48453848       0.00000000        2
N        0.00000000       6.72680771       0.00000000        2
N        0.00000000       4.48453848       2.24226924        2
Ta       0.00000000       4.48453848       4.48453848        1
Nb       0.00000000       6.72680771       6.72680771        1
Ti       2.24226924       4.48453848       6.72680771        1
Nb       2.24226924       6.72680771       4.48453848        1
N        2.24226924       6.72680771       6.72680771        2
N        2.24226924       4.48453848       4.48453848        2
N        0.00000000       6.72680771       4.48453848        2
N        0.00000000       4.48453848       6.72680771        2
Ti       0.00000000       4.48453848       8.96907695        1
Zr       0.00000000       6.72680771      11.21134619        1
Hf       2.24226924       4.48453848      11.21134619        1
Ta       2.24226924       6.72680771       8.96907695        1
N        2.24226924       6.72680771      11.21134619        2
N        2.24226924       4.48453848       8.96907695        2
N        0.00000000       6.72680771       8.96907695        2
N        0.00000000       4.48453848      11.21134619        2
Nb       0.00000000       8.96907695       0.00000000        1
Hf       0.00000000      11.21134619       2.24226924        1
Nb       2.24226924       8.96907695       2.24226924        1
Ti       2.24226924      11.21134619       0.00000000        1
N        2.24226924      11.21134619       2.24226924        2
N        2.24226924       8.96907695       0.00000000        2
N        0.00000000      11.21134619       0.00000000        2
N        0.00000000       8.96907695       2.24226924        2
Nb       0.00000000       8.96907695       4.48453848        1
Ti       0.00000000      11.21134619       6.72680771        1
Hf       2.24226924       8.96907695       6.72680771        1
Hf       2.24226924      11.21134619       4.48453848        1
N        2.24226924      11.21134619       6.72680771        2
N        2.24226924       8.96907695       4.48453848        2
N        0.00000000      11.21134619       4.48453848        2
N        0.00000000       8.96907695       6.72680771        2
Ta       0.00000000       8.96907695       8.96907695        1
Nb       0.00000000      11.21134619      11.21134619        1
Ta       2.24226924       8.96907695      11.21134619        1
Ti       2.24226924      11.21134619       8.96907695        1
N        2.24226924      11.21134619      11.21134619        2
N        2.24226924       8.96907695       8.96907695        2
N        0.00000000      11.21134619       8.96907695        2
N        0.00000000       8.96907695      11.21134619        2
Hf       4.48453848       0.00000000       0.00000000        1
Nb       4.48453848       2.24226924       2.24226924        1
Zr       6.72680771       0.00000000       2.24226924        1
Nb       6.72680771       2.24226924       0.00000000        1
N        6.72680771       2.24226924       2.24226924        2
N        6.72680771       0.00000000       0.00000000        2
N        4.48453848       2.24226924       0.00000000        2
N        4.48453848       0.00000000       2.24226924        2
Ta       4.48453848       0.00000000       4.48453848        1
Ti       4.48453848       2.24226924       6.72680771        1
Ta       6.72680771       0.00000000       6.72680771        1
Hf       6.72680771       2.24226924       4.48453848        1
N        6.72680771       2.24226924       6.72680771        2
N        6.72680771       0.00000000       4.48453848        2
N        4.48453848       2.24226924       4.48453848        2
N        4.48453848       0.00000000       6.72680771        2
Hf       4.48453848       0.00000000       8.96907695        1
Zr       4.48453848       2.24226924      11.21134619        1
Nb       6.72680771       0.00000000      11.21134619        1
Ti       6.72680771       2.24226924       8.96907695        1
N        6.72680771       2.24226924      11.21134619        2
N        6.72680771       0.00000000       8.96907695        2
N        4.48453848       2.24226924       8.96907695        2
N        4.48453848       0.00000000      11.21134619        2
Nb       4.48453848       4.48453848       0.00000000        1
Zr       4.48453848       6.72680771       2.24226924        1
Ti       6.72680771       4.48453848       2.24226924        1
Ta       6.72680771       6.72680771       0.00000000        1
N        6.72680771       6.72680771       2.24226924        2
N        6.72680771       4.48453848       0.00000000        2
N        4.48453848       6.72680771       0.00000000        2
N        4.48453848       4.48453848       2.24226924        2
Zr       4.48453848       4.48453848       4.48453848        1
Nb       4.48453848       6.72680771       6.72680771        1
Hf       6.72680771       4.48453848       6.72680771        1
Ta       6.72680771       6.72680771       4.48453848        1
N        6.72680771       6.72680771       6.72680771        2
N        6.72680771       4.48453848       4.48453848        2
N        4.48453848       6.72680771       4.48453848        2
N        4.48453848       4.48453848       6.72680771        2
Zr       4.48453848       4.48453848       8.96907695        1
Nb       4.48453848       6.72680771      11.21134619        1
Nb       6.72680771       4.48453848      11.21134619        1
Zr       6.72680771       6.72680771       8.96907695        1
N        6.72680771       6.72680771      11.21134619        2
N        6.72680771       4.48453848       8.96907695        2
N        4.48453848       6.72680771       8.96907695        2
N        4.48453848       4.48453848      11.21134619        2
Ti       4.48453848       8.96907695       0.00000000        1
Ta       4.48453848      11.21134619       2.24226924        1
Ti       6.72680771       8.96907695       2.24226924        1
Zr       6.72680771      11.21134619       0.00000000        1
N        6.72680771      11.21134619       2.24226924        2
N        6.72680771       8.96907695       0.00000000        2
N        4.48453848      11.21134619       0.00000000        2
N        4.48453848       8.96907695       2.24226924        2
Hf       4.48453848       8.96907695       4.48453848        1
Ti       4.48453848      11.21134619       6.72680771        1
Nb       6.72680771       8.96907695       6.72680771        1
Zr       6.72680771      11.21134619       4.48453848        1
N        6.72680771      11.21134619       6.72680771        2
N        6.72680771       8.96907695       4.48453848        2
N        4.48453848      11.21134619       4.48453848        2
N        4.48453848       8.96907695       6.72680771        2
Ti       4.48453848       8.96907695       8.96907695        1
Ta       4.48453848      11.21134619      11.21134619        1
Zr       6.72680771       8.96907695      11.21134619        1
Hf       6.72680771      11.21134619       8.96907695        1
N        6.72680771      11.21134619      11.21134619        2
N        6.72680771       8.96907695       8.96907695        2
N        4.48453848      11.21134619       8.96907695        2
N        4.48453848       8.96907695      11.21134619        2
Ti       8.96907695       0.00000000       0.00000000        1
Ta       8.96907695       2.24226924       2.24226924        1
Nb      11.21134619       0.00000000       2.24226924        1
Hf      11.21134619       2.24226924       0.00000000        1
N       11.21134619       2.24226924       2.24226924        2
N       11.21134619       0.00000000       0.00000000        2
N        8.96907695       2.24226924       0.00000000        2
N        8.96907695       0.00000000       2.24226924        2
Zr       8.96907695       0.00000000       4.48453848        1
Hf       8.96907695       2.24226924       6.72680771        1
Ta      11.21134619       0.00000000       6.72680771        1
Zr      11.21134619       2.24226924       4.48453848        1
N       11.21134619       2.24226924       6.72680771        2
N       11.21134619       0.00000000       4.48453848        2
N        8.96907695       2.24226924       4.48453848        2
N        8.96907695       0.00000000       6.72680771        2
Ti       8.96907695       0.00000000       8.96907695        1
Ta       8.96907695       2.24226924      11.21134619        1
Ta      11.21134619       0.00000000      11.21134619        1
Ti      11.21134619       2.24226924       8.96907695        1
N       11.21134619       2.24226924      11.21134619        2
N       11.21134619       0.00000000       8.96907695        2
N        8.96907695       2.24226924       8.96907695        2
N        8.96907695       0.00000000      11.21134619        2
Hf       8.96907695       4.48453848       0.00000000        1
Hf       8.96907695       6.72680771       2.24226924        1
Hf      11.21134619       4.48453848       2.24226924        1
Zr      11.21134619       6.72680771       0.00000000        1
N       11.21134619       6.72680771       2.24226924        2
N       11.21134619       4.48453848       0.00000000        2
N        8.96907695       6.72680771       0.00000000        2
N        8.96907695       4.48453848       2.24226924        2
Nb       8.96907695       4.48453848       4.48453848        1
Hf       8.96907695       6.72680771       6.72680771        1
Ti      11.21134619       4.48453848       6.72680771        1
Zr      11.21134619       6.72680771       4.48453848        1
N       11.21134619       6.72680771       6.72680771        2
N       11.21134619       4.48453848       4.48453848        2
N        8.96907695       6.72680771       4.48453848        2
N        8.96907695       4.48453848       6.72680771        2
Zr       8.96907695       4.48453848       8.96907695        1
Ta       8.96907695       6.72680771      11.21134619        1
Ta      11.21134619       4.48453848      11.21134619        1
Nb      11.21134619       6.72680771       8.96907695        1
N       11.21134619       6.72680771      11.21134619        2
N       11.21134619       4.48453848       8.96907695        2
N        8.96907695       6.72680771       8.96907695        2
N        8.96907695       4.48453848      11.21134619        2
Nb       8.96907695       8.96907695       0.00000000        1
Zr       8.96907695      11.21134619       2.24226924        1
Nb      11.21134619       8.96907695       2.24226924        1
Zr      11.21134619      11.21134619       0.00000000        1
N       11.21134619      11.21134619       2.24226924        2
N       11.21134619       8.96907695       0.00000000        2
N        8.96907695      11.21134619       0.00000000        2
N        8.96907695       8.96907695       2.24226924        2
Zr       8.96907695       8.96907695       4.48453848        1
Hf       8.96907695      11.21134619       6.72680771        1
Hf      11.21134619       8.96907695       6.72680771        1
Ta      11.21134619      11.21134619       4.48453848        1
N       11.21134619      11.21134619       6.72680771        2
N       11.21134619       8.96907695       4.48453848        2
N        8.96907695      11.21134619       4.48453848        2
N        8.96907695       8.96907695       6.72680771        2
Ti       8.96907695       8.96907695       8.96907695        1
Ta       8.96907695      11.21134619      11.21134619        1
Zr      11.21134619       8.96907695      11.21134619        1
Ti      11.21134619      11.21134619       8.96907695        1
N       11.21134619      11.21134619      11.21134619        2
N       11.21134619       8.96907695       8.96907695        2
N        8.96907695      11.21134619       8.96907695        2
N        8.96907695       8.96907695      11.21134619        2
216
Lattice="13.453615425789224 0.0 0.0 0.0 13.453615425789224 0.0 0.0 0.0 13.453615425789224" Properties=species:S:1:pos:R:3:tags:I:1 sqs_abs_alpha=0.15294990723562152 energy=-2237.9286238952714 mc_step=200 energy_method=uma rosenbluth_W_new=3.357649186273693 rosenbluth_W_old=4.830550233027734 pbc="T T T"
Zr       0.00000000       0.00000000       0.00000000        1
Ti       0.00000000       2.24226924       2.24226924        1
Ta       2.24226924       0.00000000       2.24226924        1
Zr       2.24226924       2.24226924       0.00000000        1
N        2.24226924       2.24226924       2.24226924        2
N        2.24226924       0.00000000       0.00000000        2
N        0.00000000       2.24226924       0.00000000        2
N        0.00000000       0.00000000       2.24226924        2
Ta       0.00000000       0.00000000       4.48453848        1
Ta       0.00000000       2.24226924       6.72680771        1
Ti       2.24226924       0.00000000       6.72680771        1
Zr       2.24226924       2.24226924       4.48453848        1
N        2.24226924       2.24226924       6.72680771        2
N        2.24226924       0.00000000       4.48453848        2
N        0.00000000       2.24226924       4.48453848        2
N        0.00000000       0.00000000       6.72680771        2
Nb       0.00000000       0.00000000       8.96907695        1
Ti       0.00000000       2.24226924      11.21134619        1
Ti       2.24226924       0.00000000      11.21134619        1
Hf       2.24226924       2.24226924       8.96907695        1
N        2.24226924       2.24226924      11.21134619        2
N        2.24226924       0.00000000       8.96907695        2
N        0.00000000       2.24226924       8.96907695        2
N        0.00000000       0.00000000      11.21134619        2
Hf       0.00000000       4.48453848       0.00000000        1
Nb       0.00000000       6.72680771       2.24226924        1
Nb       2.24226924       4.48453848       2.24226924        1
Hf       2.24226924       6.72680771       0.00000000        1
N        2.24226924       6.72680771       2.24226924        2
N        2.24226924       4.48453848       0.00000000        2
N        0.00000000       6.72680771       0.00000000        2
N        0.00000000       4.48453848       2.24226924        2
Ta       0.00000000       4.48453848       4.48453848        1
Ta       0.00000000       6.72680771       6.72680771        1
Ti       2.24226924       4.48453848       6.72680771        1
Hf       2.24226924       6.72680771       4.48453848        1
N        2.24226924       6.72680771       6.72680771        2
N        2.24226924       4.48453848       4.48453848        2
N        0.00000000       6.72680771       4.48453848        2
N        0.00000000       4.48453848       6.72680771        2
Ti       0.00000000       4.48453848       8.96907695        1
Zr       0.00000000       6.72680771      11.21134619        1
Nb       2.24226924       4.48453848      11.21134619        1
Ta       2.24226924       6.72680771       8.96907695        1
N        2.24226924       6.72680771      11.21134619        2
N        2.24226924       4.48453848       8.96907695        2
N        0.00000000       6.72680771       8.96907695        2
N        0.00000000       4.48453848      11.21134619        2
Nb       0.00000000       8.96907695       0.00000000        1
Nb       0.00000000      11.21134619       2.24226924        1
Zr       2.24226924       8.96907695       2.24226924        1
Ti       2.24226924      11.21134619       0.00000000        1
N        2.24226924      11.21134619       2.24226924        2
N        2.24226924       8.96907695       0.00000000        2
N        0.00000000      11.21134619       0.00000000        2
N        0.00000000       8.96907695       2.24226924        2
Hf       0.00000000       8.96907695       4.48453848        1
Hf       0.00000000      11.21134619       6.72680771        1
Hf       2.24226924       8.96907695       6.72680771        1
Ti       2.24226924      11.21134619       4.48453848        1
N        2.24226924      11.21134619       6.72680771        2
N        2.24226924       8.96907695       4.48453848        2
N        0.00000000      11.21134619       4.48453848        2
N        0.00000000       8.96907695       6.72680771        2
Nb       0.00000000       8.96907695       8.96907695        1
Nb       0.00000000      11.21134619      11.21134619        1
Nb       2.24226924       8.96907695      11.21134619        1
Ta       2.24226924      11.21134619       8.96907695        1
N        2.24226924      11.21134619      11.21134619        2
N        2.24226924       8.96907695       8.96907695        2
N        0.00000000      11.21134619       8.96907695        2
N        0.00000000       8.96907695      11.21134619        2
Hf       4.48453848       0.00000000       0.00000000        1
Nb       4.48453848       2.24226924       2.24226924        1
Ti       6.72680771       0.00000000       2.24226924        1
Ta       6.72680771       2.24226924       0.00000000        1
N        6.72680771       2.24226924       2.24226924        2
N        6.72680771       0.00000000       0.00000000        2
N        4.48453848       2.24226924       0.00000000        2
N        4.48453848       0.00000000       2.24226924        2
Ta       4.48453848       0.00000000       4.48453848        1
Ti       4.48453848       2.24226924       6.72680771        1
Ta       6.72680771       0.00000000       6.72680771        1
Hf       6.72680771       2.24226924       4.48453848        1
N        6.72680771       2.24226924       6.72680771        2
N        6.72680771       0.00000000       4.48453848        2
N        4.48453848       2.24226924       4.48453848        2
N        4.48453848       0.00000000       6.72680771        2
Zr       4.48453848       0.00000000       8.96907695        1
Zr       4.48453848       2.24226924      11.21134619        1
Nb       6.72680771       0.00000000      11.21134619        1
Ti       6.72680771       2.24226924       8.96907695        1
N        6.72680771       2.24226924      11.21134619        2
N        6.72680771       0.00000000       8.96907695        2
N        4.48453848       2.24226924       8.96907695        2
N        4.48453848       0.00000000      11.21134619        2
Nb       4.48453848       4.48453848       0.00000000        1
Hf       4.48453848       6.72680771       2.24226924        1
Ti       6.72680771       4.48453848       2.24226924        1
Nb       6.72680771       6.72680771       0.00000000        1
N        6.72680771       6.72680771       2.24226924        2
N        6.72680771       4.48453848       0.00000000        2
N        4.48453848       6.72680771       0.00000000        2
N        4.48453848       4.48453848       2.24226924        2
Ta       4.48453848       4.48453848       4.48453848        1
Nb       4.48453848       6.72680771       6.72680771        1
Nb       6.72680771       4.48453848       6.72680771        1
Ta       6.72680771       6.72680771       4.48453848        1
N        6.72680771       6.72680771       6.72680771        2
N        6.72680771       4.48453848       4.48453848        2
N        4.48453848       6.72680771       4.48453848        2
N        4.48453848       4.48453848       6.72680771        2
Zr       4.48453848       4.48453848       8.96907695        1
Hf       4.48453848       6.72680771      11.21134619        1
Hf       6.72680771       4.48453848      11.21134619        1
Hf       6.72680771       6.72680771       8.96907695        1
N        6.72680771       6.72680771      11.21134619        2
N        6.72680771       4.48453848       8.96907695        2
N        4.48453848       6.72680771       8.96907695        2
N        4.48453848       4.48453848      11.21134619        2
Zr       4.48453848       8.96907695       0.00000000        1
Zr       4.48453848      11.21134619       2.24226924        1
Zr       6.72680771       8.96907695       2.24226924        1
Ti       6.72680771      11.21134619       0.00000000        1
N        6.72680771      11.21134619       2.24226924        2
N        6.72680771       8.96907695       0.00000000        2
N        4.48453848      11.21134619       0.00000000        2
N        4.48453848       8.96907695       2.24226924        2
Hf       4.48453848       8.96907695       4.48453848        1
Zr       4.48453848      11.21134619       6.72680771        1
Nb       6.72680771       8.96907695       6.72680771        1
Zr       6.72680771      11.21134619       4.48453848        1
N        6.72680771      11.21134619       6.72680771        2
N        6.72680771       8.96907695       4.48453848        2
N        4.48453848      11.21134619       4.48453848        2
N        4.48453848       8.96907695       6.72680771        2
Hf       4.48453848       8.96907695       8.96907695        1
Zr       4.48453848      11.21134619      11.21134619        1
Nb       6.72680771       8.96907695      11.21134619        1
Hf       6.72680771      11.21134619       8.96907695        1
N        6.72680771      11.21134619      11.21134619        2
N        6.72680771       8.96907695       8.96907695        2
N        4.48453848      11.21134619       8.96907695        2
N        4.48453848       8.96907695      11.21134619        2
Ta       8.96907695       0.00000000       0.00000000        1
Ta       8.96907695       2.24226924       2.24226924        1
Ta      11.21134619       0.00000000       2.24226924        1
Ta      11.21134619       2.24226924       0.00000000        1
N       11.21134619       2.24226924       2.24226924        2
N       11.21134619       0.00000000       0.00000000        2
N        8.96907695       2.24226924       0.00000000        2
N        8.96907695       0.00000000       2.24226924        2
Zr       8.96907695       0.00000000       4.48453848        1
Ta       8.96907695       2.24226924       6.72680771        1
Ta      11.21134619       0.00000000       6.72680771        1
Ti      11.21134619       2.24226924       4.48453848        1
N       11.21134619       2.24226924       6.72680771        2
N       11.21134619       0.00000000       4.48453848        2
N        8.96907695       2.24226924       4.48453848        2
N        8.96907695       0.00000000       6.72680771        2
Ti       8.96907695       0.00000000       8.96907695        1
Ti       8.96907695       2.24226924      11.21134619        1
Zr      11.21134619       0.00000000      11.21134619        1
Zr      11.21134619       2.24226924       8.96907695        1
N       11.21134619       2.24226924      11.21134619        2
N       11.21134619       0.00000000       8.96907695        2
N        8.96907695       2.24226924       8.96907695        2
N        8.96907695       0.00000000      11.21134619        2
Ti       8.96907695       4.48453848       0.00000000        1
Hf       8.96907695       6.72680771       2.24226924        1
Hf      11.21134619       4.48453848       2.24226924        1
Zr      11.21134619       6.72680771       0.00000000        1
N       11.21134619       6.72680771       2.24226924        2
N       11.21134619       4.48453848       0.00000000        2
N        8.96907695       6.72680771       0.00000000        2
N        8.96907695       4.48453848       2.24226924        2
Nb       8.96907695       4.48453848       4.48453848        1
Zr       8.96907695       6.72680771       6.72680771        1
Ti      11.21134619       4.48453848       6.72680771        1
Hf      11.21134619       6.72680771       4.48453848        1
N       11.21134619       6.72680771       6.72680771        2
N       11.21134619       4.48453848       4.48453848        2
N        8.96907695       6.72680771       4.48453848        2
N        8.96907695       4.48453848       6.72680771        2
Ta       8.96907695       4.48453848       8.96907695        1
Hf       8.96907695       6.72680771      11.21134619        1
Ti      11.21134619       4.48453848      11.21134619        1
Nb      11.21134619       6.72680771       8.96907695        1
N       11.21134619       6.72680771      11.21134619        2
N       11.21134619       4.48453848       8.96907695        2
N        8.96907695       6.72680771       8.96907695        2
N        8.96907695       4.48453848      11.21134619        2
Nb       8.96907695       8.96907695       0.00000000        1
Ti       8.96907695      11.21134619       2.24226924        1
Nb      11.21134619       8.96907695       2.24226924        1
Zr      11.21134619      11.21134619       0.00000000        1
N       11.21134619      11.21134619       2.24226924        2
N       11.21134619       8.96907695       0.00000000        2
N        8.96907695      11.21134619       0.00000000        2
N        8.96907695       8.96907695       2.24226924        2
Zr       8.96907695       8.96907695       4.48453848        1
Hf       8.96907695      11.21134619       6.72680771        1
Hf      11.21134619       8.96907695       6.72680771        1
Ta      11.21134619      11.21134619       4.48453848        1
N       11.21134619      11.21134619       6.72680771        2
N       11.21134619       8.96907695       4.48453848        2
N        8.96907695      11.21134619       4.48453848        2
N        8.96907695       8.96907695       6.72680771        2
Ti       8.96907695       8.96907695       8.96907695        1
Ta       8.96907695      11.21134619      11.21134619        1
Zr      11.21134619       8.96907695      11.21134619        1
Ti      11.21134619      11.21134619       8.96907695        1
N       11.21134619      11.21134619      11.21134619        2
N       11.21134619       8.96907695       8.96907695        2
N        8.96907695      11.21134619       8.96907695        2
N        8.96907695       8.96907695      11.21134619        2
216
Lattice="13.453615425789224 0.0 0.0 0.0 13.453615425789224 0.0 0.0 0.0 13.453615425789224" Properties=species:S:1:pos:R:3:tags:I:1 sqs_abs_alpha=0.11324675324675326 energy=-2238.2883110806097 mc_step=250 energy_method=uma rosenbluth_W_new=2.026325318003908 rosenbluth_W_old=3.5908006196495377 pbc="T T T"
Zr       0.00000000       0.00000000       0.00000000        1
Ti       0.00000000       2.24226924       2.24226924        1
Ta       2.24226924       0.00000000       2.24226924        1
Nb       2.24226924       2.24226924       0.00000000        1
N        2.24226924       2.24226924       2.24226924        2
N        2.24226924       0.00000000       0.00000000        2
N        0.00000000       2.24226924       0.00000000        2
N        0.00000000       0.00000000       2.24226924        2
Ta       0.00000000       0.00000000       4.48453848        1
Zr       0.00000000       2.24226924       6.72680771        1
Ta       2.24226924       0.00000000       6.72680771        1
Zr       2.24226924       2.24226924       4.48453848        1
N        2.24226924       2.24226924       6.72680771        2
N        2.24226924       0.00000000       4.48453848        2
N        0.00000000       2.24226924       4.48453848        2
N        0.00000000       0.00000000       6.72680771        2
Nb       0.00000000       0.00000000       8.96907695        1
Zr       0.00000000       2.24226924      11.21134619        1
Ti       2.24226924       0.00000000      11.21134619        1
Hf       2.24226924       2.24226924       8.96907695        1
N        2.24226924       2.24226924      11.21134619        2
N        2.24226924       0.00000000       8.96907695        2
N        0.00000000       2.24226924       8.96907695        2
N        0.00000000       0.00000000      11.21134619        2
Hf       0.00000000       4.48453848       0.00000000        1
Ta       0.00000000       6.72680771       2.24226924        1
Nb       2.24226924       4.48453848       2.24226924        1
Zr       2.24226924       6.72680771       0.00000000        1
N        2.24226924       6.72680771       2.24226924        2
N        2.24226924       4.48453848       0.00000000        2
N        0.00000000       6.72680771       0.00000000        2
N        0.00000000       4.48453848       2.24226924        2
Ta       0.00000000       4.48453848       4.48453848        1
Ta       0.00000000       6.72680771       6.72680771        1
Zr       2.24226924       4.48453848       6.72680771        1
Hf       2.24226924       6.72680771       4.48453848        1
N        2.24226924       6.72680771       6.72680771        2
N        2.24226924       4.48453848       4.48453848        2
N        0.00000000       6.72680771       4.48453848        2
N        0.00000000       4.48453848       6.72680771        2
Ti       0.00000000       4.48453848       8.96907695        1
Zr       0.00000000       6.72680771      11.21134619        1
Hf       2.24226924       4.48453848      11.21134619        1
Hf       2.24226924       6.72680771       8.96907695        1
N        2.24226924       6.72680771      11.21134619        2
N        2.24226924       4.48453848       8.96907695        2
N        0.00000000       6.72680771       8.96907695        2
N        0.00000000       4.48453848      11.21134619        2
Nb       0.00000000       8.96907695       0.00000000        1
Nb       0.00000000      11.21134619       2.24226924        1
Hf       2.24226924       8.96907695       2.24226924        1
Ti       2.24226924      11.21134619       0.00000000        1
N        2.24226924      11.21134619       2.24226924        2
N        2.24226924       8.96907695       0.00000000        2
N        0.00000000      11.21134619       0.00000000        2
N        0.00000000       8.96907695       2.24226924        2
Hf       0.00000000       8.96907695       4.48453848        1
Ti       0.00000000      11.21134619       6.72680771        1
Hf       2.24226924       8.96907695       6.72680771        1
Ti       2.24226924      11.21134619       4.48453848        1
N        2.24226924      11.21134619       6.72680771        2
N        2.24226924       8.96907695       4.48453848        2
N        0.00000000      11.21134619       4.48453848        2
N        0.00000000       8.96907695       6.72680771        2
Nb       0.00000000       8.96907695       8.96907695        1
Ti       0.00000000      11.21134619      11.21134619        1
Nb       2.24226924       8.96907695      11.21134619        1
Hf       2.24226924      11.21134619       8.96907695        1
N        2.24226924      11.21134619      11.21134619        2
N        2.24226924       8.96907695       8.96907695        2
N        0.00000000      11.21134619       8.96907695        2
N        0.00000000       8.96907695      11.21134619        2
Ti       4.48453848       0.00000000       0.00000000        1
Ta       4.48453848       2.24226924       2.24226924        1
Ti       6.72680771       0.00000000       2.24226924        1
Hf       6.72680771       2.24226924       0.00000000        1
N        6.72680771       2.24226924       2.24226924        2
N        6.72680771       0.00000000       0.00000000        2
N        4.48453848       2.24226924       0.00000000        2
N        4.48453848       0.00000000       2.24226924        2
Ta       4.48453848       0.00000000       4.48453848        1
Ta       4.48453848       2.24226924       6.72680771        1
Ti       6.72680771       0.00000000       6.72680771        1
Ta       6.72680771       2.24226924       4.48453848        1
N        6.72680771       2.24226924       6.72680771        2
N        6.72680771       0.00000000       4.48453848        2
N        4.48453848       2.24226924       4.48453848        2
N        4.48453848       0.00000000       6.72680771        2
Zr       4.48453848       0.00000000       8.96907695        1
Zr       4.48453848       2.24226924      11.21134619        1
Nb       6.72680771       0.00000000      11.21134619        1
Ti       6.72680771       2.24226924       8.96907695        1
N        6.72680771       2.24226924      11.21134619        2
N        6.72680771       0.00000000       8.96907695        2
N        4.48453848       2.24226924       8.96907695        2
N        4.48453848       0.00000000      11.21134619        2
Nb       4.48453848       4.48453848       0.00000000        1
Ti       4.48453848       6.72680771       2.24226924        1
Ti       6.72680771       4.48453848       2.24226924        1
Hf       6.72680771       6.72680771       0.00000000        1
N        6.72680771       6.72680771       2.24226924        2
N        6.72680771       4.48453848       0.00000000        2
N        4.48453848       6.72680771       0.00000000        2
N        4.48453848       4.48453848       2.24226924        2
Zr       4.48453848       4.48453848       4.48453848        1
Nb       4.48453848       6.72680771       6.72680771        1
Hf       6.72680771       4.48453848       6.72680771        1
Ta       6.72680771       6.72680771       4.48453848        1
N        6.72680771       6.72680771       6.72680771        2
N        6.72680771       4.48453848       4.48453848        2
N        4.48453848       6.72680771       4.48453848        2
N        4.48453848       4.48453848       6.72680771        2
Ta       4.48453848       4.48453848       8.96907695        1
Nb       4.48453848       6.72680771      11.21134619        1
Hf       6.72680771       4.48453848      11.21134619        1
Zr       6.72680771       6.72680771       8.96907695        1
N        6.72680771       6.72680771      11.21134619        2
N        6.72680771       4.48453848       8.96907695        2
N        4.48453848       6.72680771       8.96907695        2
N        4.48453848       4.48453848      11.21134619        2
Ta       4.48453848       8.96907695       0.00000000        1
Nb       4.48453848      11.21134619       2.24226924        1
Hf       6.72680771       8.96907695       2.24226924        1
Nb       6.72680771      11.21134619       0.00000000        1
N        6.72680771      11.21134619       2.24226924        2
N        6.72680771       8.96907695       0.00000000        2
N        4.48453848      11.21134619       0.00000000        2
N        4.48453848       8.96907695       2.24226924        2
Ta       4.48453848       8.96907695       4.48453848        1
Ti       4.48453848      11.21134619       6.72680771        1
Nb       6.72680771       8.96907695       6.72680771        1
Zr       6.72680771      11.21134619       4.48453848        1
N        6.72680771      11.21134619       6.72680771        2
N        6.72680771       8.96907695       4.48453848        2
N        4.48453848      11.21134619       4.48453848        2
N        4.48453848       8.96907695       6.72680771        2
Zr       4.48453848       8.96907695       8.96907695        1
Zr       4.48453848      11.21134619      11.21134619        1
Nb       6.72680771       8.96907695      11.21134619        1
Hf       6.72680771      11.21134619       8.96907695        1
N        6.72680771      11.21134619      11.21134619        2
N        6.72680771       8.96907695       8.96907695        2
N        4.48453848      11.21134619       8.96907695        2
N        4.48453848       8.96907695      11.21134619        2
Ta       8.96907695       0.00000000       0.00000000        1
Ta       8.96907695       2.24226924       2.24226924        1
Hf      11.21134619       0.00000000       2.24226924        1
Nb      11.21134619       2.24226924       0.00000000        1
N       11.21134619       2.24226924       2.24226924        2
N       11.21134619       0.00000000       0.00000000        2
N        8.96907695       2.24226924       0.00000000        2
N        8.96907695       0.00000000       2.24226924        2
Ti       8.96907695       0.00000000       4.48453848        1
Ta       8.96907695       2.24226924       6.72680771        1
Nb      11.21134619       0.00000000       6.72680771        1
Ti      11.21134619       2.24226924       4.48453848        1
N       11.21134619       2.24226924       6.72680771        2
N       11.21134619       0.00000000       4.48453848        2
N        8.96907695       2.24226924       4.48453848        2
N        8.96907695       0.00000000       6.72680771        2
Hf       8.96907695       0.00000000       8.96907695        1
Zr       8.96907695       2.24226924      11.21134619        1
Zr      11.21134619       0.00000000      11.21134619        1
Zr      11.21134619       2.24226924       8.96907695        1
N       11.21134619       2.24226924      11.21134619        2
N       11.21134619       0.00000000       8.96907695        2
N        8.96907695       2.24226924       8.96907695        2
N        8.96907695       0.00000000      11.21134619        2
Ti       8.96907695       4.48453848       0.00000000        1
Ta       8.96907695       6.72680771       2.24226924        1
Hf      11.21134619       4.48453848       2.24226924        1
Zr      11.21134619       6.72680771       0.00000000        1
N       11.21134619       6.72680771       2.24226924        2
N       11.21134619       4.48453848       0.00000000        2
N        8.96907695       6.72680771       0.00000000        2
N        8.96907695       4.48453848       2.24226924        2
Ta       8.96907695       4.48453848       4.48453848        1
Zr       8.96907695       6.72680771       6.72680771        1
Ti      11.21134619       4.48453848       6.72680771        1
Ti      11.21134619       6.72680771       4.48453848        1
N       11.21134619       6.72680771       6.72680771        2
N       11.21134619       4.48453848       4.48453848        2
N        8.96907695       6.72680771       4.48453848        2
N        8.96907695       4.48453848       6.72680771        2
Zr       8.96907695       4.48453848       8.96907695        1
Hf       8.96907695       6.72680771      11.21134619        1
Ti      11.21134619       4.48453848      11.21134619        1
Nb      11.21134619       6.72680771       8.96907695        1
N       11.21134619       6.72680771      11.21134619        2
N       11.21134619       4.48453848       8.96907695        2
N        8.96907695       6.72680771       8.96907695        2
N        8.96907695       4.48453848      11.21134619        2
Nb       8.96907695       8.96907695       0.00000000        1
Ti       8.96907695      11.21134619       2.24226924        1
Nb      11.21134619       8.96907695       2.24226924        1
Zr      11.21134619      11.21134619       0.00000000        1
N       11.21134619      11.21134619       2.24226924        2
N       11.21134619       8.96907695       0.00000000        2
N        8.96907695      11.21134619       0.00000000        2
N        8.96907695       8.96907695       2.24226924        2
Hf       8.96907695       8.96907695       4.48453848        1
Hf       8.96907695      11.21134619       6.72680771        1
Hf      11.21134619       8.96907695       6.72680771        1
Ta      11.21134619      11.21134619       4.48453848        1
N       11.21134619      11.21134619       6.72680771        2
N       11.21134619       8.96907695       4.48453848        2
N        8.96907695      11.21134619       4.48453848        2
N        8.96907695       8.96907695       6.72680771        2
Ti       8.96907695       8.96907695       8.96907695        1
Nb       8.96907695      11.21134619      11.21134619        1
Zr      11.21134619       8.96907695      11.21134619        1
Ta      11.21134619      11.21134619       8.96907695        1
N       11.21134619      11.21134619      11.21134619        2
N       11.21134619       8.96907695       8.96907695        2
N        8.96907695      11.21134619       8.96907695        2
N        8.96907695       8.96907695      11.21134619        2
216
Lattice="13.453615425789224 0.0 0.0 0.0 13.453615425789224 0.0 0.0 0.0 13.453615425789224" Properties=species:S:1:pos:R:3:tags:I:1 sqs_abs_alpha=0.1385697419463653 energy=-2238.5793856717555 mc_step=300 energy_method=uma rosenbluth_W_new=3.908810127469165 rosenbluth_W_old=4.21793248873455 pbc="T T T"
Ti       0.00000000       0.00000000       0.00000000        1
Hf       0.00000000       2.24226924       2.24226924        1
Hf       2.24226924       0.00000000       2.24226924        1
Ta       2.24226924       2.24226924       0.00000000        1
N        2.24226924       2.24226924       2.24226924        2
N        2.24226924       0.00000000       0.00000000        2
N        0.00000000       2.24226924       0.00000000        2
N        0.00000000       0.00000000       2.24226924        2
Ta       0.00000000       0.00000000       4.48453848        1
Zr       0.00000000       2.24226924       6.72680771        1
Hf       2.24226924       0.00000000       6.72680771        1
Nb       2.24226924       2.24226924       4.48453848        1
N        2.24226924       2.24226924       6.72680771        2
N        2.24226924       0.00000000       4.48453848        2
N        0.00000000       2.24226924       4.48453848        2
N        0.00000000       0.00000000       6.72680771        2
Nb       0.00000000       0.00000000       8.96907695        1
Hf       0.00000000       2.24226924      11.21134619        1
Ti       2.24226924       0.00000000      11.21134619        1
Zr       2.24226924       2.24226924       8.96907695        1
N        2.24226924       2.24226924      11.21134619        2
N        2.24226924       0.00000000       8.96907695        2
N        0.00000000       2.24226924       8.96907695        2
N        0.00000000       0.00000000      11.21134619        2
Ti       0.00000000       4.48453848       0.00000000        1
Ta       0.00000000       6.72680771       2.24226924        1
Nb       2.24226924       4.48453848       2.24226924        1
Zr       2.24226924       6.72680771       0.00000000        1
N        2.24226924       6.72680771       2.24226924        2
N        2.24226924       4.48453848       0.00000000        2
N        0.00000000       6.72680771       0.00000000        2
N        0.00000000       4.48453848       2.24226924        2
Ta       0.00000000       4.48453848       4.48453848        1
Ta       0.00000000       6.72680771       6.72680771        1
Ta       2.24226924       4.48453848       6.72680771        1
Zr       2.24226924       6.72680771       4.48453848        1
N        2.24226924       6.72680771       6.72680771        2
N        2.24226924       4.48453848       4.48453848        2
N        0.00000000       6.72680771       4.48453848        2
N        0.00000000       4.48453848       6.72680771        2
Ti       0.00000000       4.48453848       8.96907695        1
Zr       0.00000000       6.72680771      11.21134619        1
Hf       2.24226924       4.48453848      11.21134619        1
Nb       2.24226924       6.72680771       8.96907695        1
N        2.24226924       6.72680771      11.21134619        2
N        2.24226924       4.48453848       8.96907695        2
N        0.00000000       6.72680771       8.96907695        2
N        0.00000000       4.48453848      11.21134619        2
Zr       0.00000000       8.96907695       0.00000000        1
Nb       0.00000000      11.21134619       2.24226924        1
Hf       2.24226924       8.96907695       2.24226924        1
Hf       2.24226924      11.21134619       0.00000000        1
N        2.24226924      11.21134619       2.24226924        2
N        2.24226924       8.96907695       0.00000000        2
N        0.00000000      11.21134619       0.00000000        2
N        0.00000000       8.96907695       2.24226924        2
Nb       0.00000000       8.96907695       4.48453848        1
Ti       0.00000000      11.21134619       6.72680771        1
Hf       2.24226924       8.96907695       6.72680771        1
Ta       2.24226924      11.21134619       4.48453848        1
N        2.24226924      11.21134619       6.72680771        2
N        2.24226924       8.96907695       4.48453848        2
N        0.00000000      11.21134619       4.48453848        2
N        0.00000000       8.96907695       6.72680771        2
Zr       0.00000000       8.96907695       8.96907695        1
Ti       0.00000000      11.21134619      11.21134619        1
Nb       2.24226924       8.96907695      11.21134619        1
Hf       2.24226924      11.21134619       8.96907695        1
N        2.24226924      11.21134619      11.21134619        2
N        2.24226924       8.96907695       8.96907695        2
N        0.00000000      11.21134619       8.96907695        2
N        0.00000000       8.96907695      11.21134619        2
Ti       4.48453848       0.00000000       0.00000000        1
Zr       4.48453848       2.24226924       2.24226924        1
Nb       6.72680771       0.00000000       2.24226924        1
Hf       6.72680771       2.24226924       0.00000000        1
N        6.72680771       2.24226924       2.24226924        2
N        6.72680771       0.00000000       0.00000000        2
N        4.48453848       2.24226924       0.00000000        2
N        4.48453848       0.00000000       2.24226924        2
Ta       4.48453848       0.00000000       4.48453848        1
Zr       4.48453848       2.24226924       6.72680771        1
Ti       6.72680771       0.00000000       6.72680771        1
Ta       6.72680771       2.24226924       4.48453848        1
N        6.72680771       2.24226924       6.72680771        2
N        6.72680771       0.00000000       4.48453848        2
N        4.48453848       2.24226924       4.48453848        2
N        4.48453848       0.00000000       6.72680771        2
Ta       4.48453848       0.00000000       8.96907695        1
Nb       4.48453848       2.24226924      11.21134619        1
Hf       6.72680771       0.00000000      11.21134619        1
Ti       6.72680771       2.24226924       8.96907695        1
N        6.72680771       2.24226924      11.21134619        2
N        6.72680771       0.00000000       8.96907695        2
N        4.48453848       2.24226924       8.96907695        2
N        4.48453848       0.00000000      11.21134619        2
Ti       4.48453848       4.48453848       0.00000000        1
Ti       4.48453848       6.72680771       2.24226924        1
Zr       6.72680771       4.48453848       2.24226924        1
Hf       6.72680771       6.72680771       0.00000000        1
N        6.72680771       6.72680771       2.24226924        2
N        6.72680771       4.48453848       0.00000000        2
N        4.48453848       6.72680771       0.00000000        2
N        4.48453848       4.48453848       2.24226924        2
Zr       4.48453848       4.48453848       4.48453848        1
Nb       4.48453848       6.72680771       6.72680771        1
Nb       6.72680771       4.48453848       6.72680771        1
Ta       6.72680771       6.72680771       4.48453848        1
N        6.72680771       6.72680771       6.72680771        2
N        6.72680771       4.48453848       4.48453848        2
N        4.48453848       6.72680771       4.48453848        2
N        4.48453848       4.48453848       6.72680771        2
Hf       4.48453848       4.48453848       8.96907695        1
Ta       4.48453848       6.72680771      11.21134619        1
Ta       6.72680771       4.48453848      11.21134619        1
Zr       6.72680771       6.72680771       8.96907695        1
N        6.72680771       6.72680771      11.21134619        2
N        6.72680771       4.48453848       8.96907695        2
N        4.48453848       6.72680771       8.96907695        2
N        4.48453848       4.48453848      11.21134619        2
Ta       4.48453848       8.96907695       0.00000000        1
Hf       4.48453848      11.21134619       2.24226924        1
Hf       6.72680771       8.96907695       2.24226924        1
Ti       6.72680771      11.21134619       0.00000000        1
N        6.72680771      11.21134619       2.24226924        2
N        6.72680771       8.96907695       0.00000000        2
N        4.48453848      11.21134619       0.00000000        2
N        4.48453848       8.96907695       2.24226924        2
Ta       4.48453848       8.96907695       4.48453848        1
Nb       4.48453848      11.21134619       6.72680771        1
Nb       6.72680771       8.96907695       6.72680771        1
Zr       6.72680771      11.21134619       4.48453848        1
N        6.72680771      11.21134619       6.72680771        2
N        6.72680771       8.96907695       4.48453848        2
N        4.48453848      11.21134619       4.48453848        2
N        4.48453848       8.96907695       6.72680771        2
Zr       4.48453848       8.96907695       8.96907695        1
Hf       4.48453848      11.21134619      11.21134619        1
Nb       6.72680771       8.96907695      11.21134619        1
Ta       6.72680771      11.21134619       8.96907695        1
N        6.72680771      11.21134619      11.21134619        2
N        6.72680771       8.96907695       8.96907695        2
N        4.48453848      11.21134619       8.96907695        2
N        4.48453848       8.96907695      11.21134619        2
Nb       8.96907695       0.00000000       0.00000000        1
Ta       8.96907695       2.24226924       2.24226924        1
Ti      11.21134619       0.00000000       2.24226924        1
Ti      11.21134619       2.24226924       0.00000000        1
N       11.21134619       2.24226924       2.24226924        2
N       11.21134619       0.00000000       0.00000000        2
N        8.96907695       2.24226924       0.00000000        2
N        8.96907695       0.00000000       2.24226924        2
Hf       8.96907695       0.00000000       4.48453848        1
Hf       8.96907695       2.24226924       6.72680771        1
Ta      11.21134619       0.00000000       6.72680771        1
Ti      11.21134619       2.24226924       4.48453848        1
N       11.21134619       2.24226924       6.72680771        2
N       11.21134619       0.00000000       4.48453848        2
N        8.96907695       2.24226924       4.48453848        2
N        8.96907695       0.00000000       6.72680771        2
Hf       8.96907695       0.00000000       8.96907695        1
Ti       8.96907695       2.24226924      11.21134619        1
Zr      11.21134619       0.00000000      11.21134619        1
Nb      11.21134619       2.24226924       8.96907695        1
N       11.21134619       2.24226924      11.21134619        2
N       11.21134619       0.00000000       8.96907695        2
N        8.96907695       2.24226924       8.96907695        2
N        8.96907695       0.00000000      11.21134619        2
Ti       8.96907695       4.48453848       0.00000000        1
Ta       8.96907695       6.72680771       2.24226924        1
Zr      11.21134619       4.48453848       2.24226924        1
Zr      11.21134619       6.72680771       0.00000000        1
N       11.21134619       6.72680771       2.24226924        2
N       11.21134619       4.48453848       0.00000000        2
N        8.96907695       6.72680771       0.00000000        2
N        8.96907695       4.48453848       2.24226924        2
Zr       8.96907695       4.48453848       4.48453848        1
Zr       8.96907695       6.72680771       6.72680771        1
Zr      11.21134619       4.48453848       6.72680771        1
Ti      11.21134619       6.72680771       4.48453848        1
N       11.21134619       6.72680771       6.72680771        2
N       11.21134619       4.48453848       4.48453848        2
N        8.96907695       6.72680771       4.48453848        2
N        8.96907695       4.48453848       6.72680771        2
Nb       8.96907695       4.48453848       8.96907695        1
Zr       8.96907695       6.72680771      11.21134619        1
Nb      11.21134619       4.48453848      11.21134619        1
Nb      11.21134619       6.72680771       8.96907695        1
N       11.21134619       6.72680771      11.21134619        2
N       11.21134619       4.48453848       8.96907695        2
N        8.96907695       6.72680771       8.96907695        2
N        8.96907695       4.48453848      11.21134619        2
Nb       8.96907695       8.96907695       0.00000000        1
Ti       8.96907695      11.21134619       2.24226924        1
Nb      11.21134619       8.96907695       2.24226924        1
Ta      11.21134619      11.21134619       0.00000000        1
N       11.21134619      11.21134619       2.24226924        2
N       11.21134619       8.96907695       0.00000000        2
N        8.96907695      11.21134619       0.00000000        2
N        8.96907695       8.96907695       2.24226924        2
Hf       8.96907695       8.96907695       4.48453848        1
Hf       8.96907695      11.21134619       6.72680771        1
Ti      11.21134619       8.96907695       6.72680771        1
Hf      11.21134619      11.21134619       4.48453848        1
N       11.21134619      11.21134619       6.72680771        2
N       11.21134619       8.96907695       4.48453848        2
N        8.96907695      11.21134619       4.48453848        2
N        8.96907695       8.96907695       6.72680771        2
Ti       8.96907695       8.96907695       8.96907695        1
Ti       8.96907695      11.21134619      11.21134619        1
Zr      11.21134619       8.96907695      11.21134619        1
Ta      11.21134619      11.21134619       8.96907695        1
N       11.21134619      11.21134619      11.21134619        2
N       11.21134619       8.96907695       8.96907695        2
N        8.96907695      11.21134619       8.96907695        2
N        8.96907695       8.96907695      11.21134619        2
216
Lattice="13.453615425789224 0.0 0.0 0.0 13.453615425789224 0.0 0.0 0.0 13.453615425789224" Properties=species:S:1:pos:R:3:tags:I:1 sqs_abs_alpha=0.10713779726766742 energy=-2238.504330018973 mc_step=350 energy_method=uma rosenbluth_W_new=6.9963716219362535 rosenbluth_W_old=3.3060720720963466 pbc="T T T"
Nb       0.00000000       0.00000000       0.00000000        1
Zr       0.00000000       2.24226924       2.24226924        1
Hf       2.24226924       0.00000000       2.24226924        1
Ta       2.24226924       2.24226924       0.00000000        1
N        2.24226924       2.24226924       2.24226924        2
N        2.24226924       0.00000000       0.00000000        2
N        0.00000000       2.24226924       0.00000000        2
N        0.00000000       0.00000000       2.24226924        2
Ta       0.00000000       0.00000000       4.48453848        1
Nb       0.00000000       2.24226924       6.72680771        1
Hf       2.24226924       0.00000000       6.72680771        1
Nb       2.24226924       2.24226924       4.48453848        1
N        2.24226924       2.24226924       6.72680771        2
N        2.24226924       0.00000000       4.48453848        2
N        0.00000000       2.24226924       4.48453848        2
N        0.00000000       0.00000000       6.72680771        2
Hf       0.00000000       0.00000000       8.96907695        1
Hf       0.00000000       2.24226924      11.21134619        1
Nb       2.24226924       0.00000000      11.21134619        1
Zr       2.24226924       2.24226924       8.96907695        1
N        2.24226924       2.24226924      11.21134619        2
N        2.24226924       0.00000000       8.96907695        2
N        0.00000000       2.24226924       8.96907695        2
N        0.00000000       0.00000000      11.21134619        2
Nb       0.00000000       4.48453848       0.00000000        1
Ta       0.00000000       6.72680771       2.24226924        1
Nb       2.24226924       4.48453848       2.24226924        1
Zr       2.24226924       6.72680771       0.00000000        1
N        2.24226924       6.72680771       2.24226924        2
N        2.24226924       4.48453848       0.00000000        2
N        0.00000000       6.72680771       0.00000000        2
N        0.00000000       4.48453848       2.24226924        2
Hf       0.00000000       4.48453848       4.48453848        1
Nb       0.00000000       6.72680771       6.72680771        1
Ti       2.24226924       4.48453848       6.72680771        1
Zr       2.24226924       6.72680771       4.48453848        1
N        2.24226924       6.72680771       6.72680771        2
N        2.24226924       4.48453848       4.48453848        2
N        0.00000000       6.72680771       4.48453848        2
N        0.00000000       4.48453848       6.72680771        2
Nb       0.00000000       4.48453848       8.96907695        1
Zr       0.00000000       6.72680771      11.21134619        1
Zr       2.24226924       4.48453848      11.21134619        1
Nb       2.24226924       6.72680771       8.96907695        1
N        2.24226924       6.72680771      11.21134619        2
N        2.24226924       4.48453848       8.96907695        2
N        0.00000000       6.72680771       8.96907695        2
N        0.00000000       4.48453848      11.21134619        2
Zr       0.00000000       8.96907695       0.00000000        1
Nb       0.00000000      11.21134619       2.24226924        1
Ti       2.24226924       8.96907695       2.24226924        1
Hf       2.24226924      11.21134619       0.00000000        1
N        2.24226924      11.21134619       2.24226924        2
N        2.24226924       8.96907695       0.00000000        2
N        0.00000000      11.21134619       0.00000000        2
N        0.00000000       8.96907695       2.24226924        2
Ta       0.00000000       8.96907695       4.48453848        1
Hf       0.00000000      11.21134619       6.72680771        1
Zr       2.24226924       8.96907695       6.72680771        1
Ta       2.24226924      11.21134619       4.48453848        1
N        2.24226924      11.21134619       6.72680771        2
N        2.24226924       8.96907695       4.48453848        2
N        0.00000000      11.21134619       4.48453848        2
N        0.00000000       8.96907695       6.72680771        2
Nb       0.00000000       8.96907695       8.96907695        1
Ti       0.00000000      11.21134619      11.21134619        1
Ta       2.24226924       8.96907695      11.21134619        1
Zr       2.24226924      11.21134619       8.96907695        1
N        2.24226924      11.21134619      11.21134619        2
N        2.24226924       8.96907695       8.96907695        2
N        0.00000000      11.21134619       8.96907695        2
N        0.00000000       8.96907695      11.21134619        2
Ti       4.48453848       0.00000000       0.00000000        1
Zr       4.48453848       2.24226924       2.24226924        1
Zr       6.72680771       0.00000000       2.24226924        1
Hf       6.72680771       2.24226924       0.00000000        1
N        6.72680771       2.24226924       2.24226924        2
N        6.72680771       0.00000000       0.00000000        2
N        4.48453848       2.24226924       0.00000000        2
N        4.48453848       0.00000000       2.24226924        2
Hf       4.48453848       0.00000000       4.48453848        1
Zr       4.48453848       2.24226924       6.72680771        1
Ti       6.72680771       0.00000000       6.72680771        1
Zr       6.72680771       2.24226924       4.48453848        1
N        6.72680771       2.24226924       6.72680771        2
N        6.72680771       0.00000000       4.48453848        2
N        4.48453848       2.24226924       4.48453848        2
N        4.48453848       0.00000000       6.72680771        2
Ta       4.48453848       0.00000000       8.96907695        1
Nb       4.48453848       2.24226924      11.21134619        1
Hf       6.72680771       0.00000000      11.21134619        1
Ta       6.72680771       2.24226924       8.96907695        1
N        6.72680771       2.24226924      11.21134619        2
N        6.72680771       0.00000000       8.96907695        2
N        4.48453848       2.24226924       8.96907695        2
N        4.48453848       0.00000000      11.21134619        2
Ti       4.48453848       4.48453848       0.00000000        1
Ti       4.48453848       6.72680771       2.24226924        1
Ta       6.72680771       4.48453848       2.24226924        1
Hf       6.72680771       6.72680771       0.00000000        1
N        6.72680771       6.72680771       2.24226924        2
N        6.72680771       4.48453848       0.00000000        2
N        4.48453848       6.72680771       0.00000000        2
N        4.48453848       4.48453848       2.24226924        2
Zr       4.48453848       4.48453848       4.48453848        1
Ti       4.48453848       6.72680771       6.72680771        1
Ti       6.72680771       4.48453848       6.72680771        1
Ta       6.72680771       6.72680771       4.48453848        1
N        6.72680771       6.72680771       6.72680771        2
N        6.72680771       4.48453848       4.48453848        2
N        4.48453848       6.72680771       4.48453848        2
N        4.48453848       4.48453848       6.72680771        2
Ti       4.48453848       4.48453848       8.96907695        1
Ta       4.48453848       6.72680771      11.21134619        1
Zr       6.72680771       4.48453848      11.21134619        1
Hf       6.72680771       6.72680771       8.96907695        1
N        6.72680771       6.72680771      11.21134619        2
N        6.72680771       4.48453848       8.96907695        2
N        4.48453848       6.72680771       8.96907695        2
N        4.48453848       4.48453848      11.21134619        2
Ti       4.48453848       8.96907695       0.00000000        1
Ti       4.48453848      11.21134619       2.24226924        1
Nb       6.72680771       8.96907695       2.24226924        1
Hf       6.72680771      11.21134619       0.00000000        1
N        6.72680771      11.21134619       2.24226924        2
N        6.72680771       8.96907695       0.00000000        2
N        4.48453848      11.21134619       0.00000000        2
N        4.48453848       8.96907695       2.24226924        2
Ta       4.48453848       8.96907695       4.48453848        1
Ta       4.48453848      11.21134619       6.72680771        1
Ti       6.72680771       8.96907695       6.72680771        1
Hf       6.72680771      11.21134619       4.48453848        1
N        6.72680771      11.21134619       6.72680771        2
N        6.72680771       8.96907695       4.48453848        2
N        4.48453848      11.21134619       4.48453848        2
N        4.48453848       8.96907695       6.72680771        2
Zr       4.48453848       8.96907695       8.96907695        1
Nb       4.48453848      11.21134619      11.21134619        1
Nb       6.72680771       8.96907695      11.21134619        1
Nb       6.72680771      11.21134619       8.96907695        1
N        6.72680771      11.21134619      11.21134619        2
N        6.72680771       8.96907695       8.96907695        2
N        4.48453848      11.21134619       8.96907695        2
N        4.48453848       8.96907695      11.21134619        2
Zr       8.96907695       0.00000000       0.00000000        1
Nb       8.96907695       2.24226924       2.24226924        1
Ta      11.21134619       0.00000000       2.24226924        1
Zr      11.21134619       2.24226924       0.00000000        1
N       11.21134619       2.24226924       2.24226924        2
N       11.21134619       0.00000000       0.00000000        2
N        8.96907695       2.24226924       0.00000000        2
N        8.96907695       0.00000000       2.24226924        2
Ta       8.96907695       0.00000000       4.48453848        1
Hf       8.96907695       2.24226924       6.72680771        1
Nb      11.21134619       0.00000000       6.72680771        1
Ti      11.21134619       2.24226924       4.48453848        1
N       11.21134619       2.24226924       6.72680771        2
N       11.21134619       0.00000000       4.48453848        2
N        8.96907695       2.24226924       4.48453848        2
N        8.96907695       0.00000000       6.72680771        2
Hf       8.96907695       0.00000000       8.96907695        1
Ti       8.96907695       2.24226924      11.21134619        1
Ta      11.21134619       0.00000000      11.21134619        1
Hf      11.21134619       2.24226924       8.96907695        1
N       11.21134619       2.24226924      11.21134619        2
N       11.21134619       0.00000000       8.96907695        2
N        8.96907695       2.24226924       8.96907695        2
N        8.96907695       0.00000000      11.21134619        2
Ti       8.96907695       4.48453848       0.00000000        1
Ta       8.96907695       6.72680771       2.24226924        1
Hf      11.21134619       4.48453848       2.24226924        1
Zr      11.21134619       6.72680771       0.00000000        1
N       11.21134619       6.72680771       2.24226924        2
N       11.21134619       4.48453848       0.00000000        2
N        8.96907695       6.72680771       0.00000000        2
N        8.96907695       4.48453848       2.24226924        2
Zr       8.96907695       4.48453848       4.48453848        1
Ta       8.96907695       6.72680771       6.72680771        1
Ta      11.21134619       4.48453848       6.72680771        1
Ti      11.21134619       6.72680771       4.48453848        1
N       11.21134619       6.72680771       6.72680771        2
N       11.21134619       4.48453848       4.48453848        2
N        8.96907695       6.72680771       4.48453848        2
N        8.96907695       4.48453848       6.72680771        2
Ti       8.96907695       4.48453848       8.96907695        1
Ti       8.96907695       6.72680771      11.21134619        1
Nb      11.21134619       4.48453848      11.21134619        1
Zr      11.21134619       6.72680771       8.96907695        1
N       11.21134619       6.72680771      11.21134619        2
N       11.21134619       4.48453848       8.96907695        2
N        8.96907695       6.72680771       8.96907695        2
N        8.96907695       4.48453848      11.21134619        2
Nb       8.96907695       8.96907695       0.00000000        1
Ti       8.96907695      11.21134619       2.24226924        1
Hf      11.21134619       8.96907695       2.24226924        1
Ta      11.21134619      11.21134619       0.00000000        1
N       11.21134619      11.21134619       2.24226924        2
N       11.21134619       8.96907695       0.00000000        2
N        8.96907695      11.21134619       0.00000000        2
N        8.96907695       8.96907695       2.24226924        2
Hf       8.96907695       8.96907695       4.48453848        1
Nb       8.96907695      11.21134619       6.72680771        1
Ti      11.21134619       8.96907695       6.72680771        1
Hf      11.21134619      11.21134619       4.48453848        1
N       11.21134619      11.21134619       6.72680771        2
N       11.21134619       8.96907695       4.48453848        2
N        8.96907695      11.21134619       4.48453848        2
N        8.96907695       8.96907695       6.72680771        2
Ti       8.96907695       8.96907695       8.96907695        1
Hf       8.96907695      11.21134619      11.21134619        1
Zr      11.21134619       8.96907695      11.21134619        1
Ta      11.21134619      11.21134619       8.96907695        1
N       11.21134619      11.21134619      11.21134619        2
N       11.21134619       8.96907695       8.96907695        2
N        8.96907695      11.21134619       8.96907695        2
N        8.96907695       8.96907695      11.21134619        2
216
Lattice="13.453615425789224 0.0 0.0 0.0 13.453615425789224 0.0 0.0 0.0 13.453615425789224" Properties=species:S:1:pos:R:3:tags:I:1 sqs_abs_alpha=0.12172373081463991 energy=-2238.4088719821066 mc_step=400 energy_method=uma rosenbluth_W_new=2.444433199943374 rosenbluth_W_old=5.07078735145387 pbc="T T T"
Ta       0.00000000       0.00000000       0.00000000        1
Hf       0.00000000       2.24226924       2.24226924        1
Ti       2.24226924       0.00000000       2.24226924        1
Hf       2.24226924       2.24226924       0.00000000        1
N        2.24226924       2.24226924       2.24226924        2
N        2.24226924       0.00000000       0.00000000        2
N        0.00000000       2.24226924       0.00000000        2
N        0.00000000       0.00000000       2.24226924        2
Ta       0.00000000       0.00000000       4.48453848        1
Nb       0.00000000       2.24226924       6.72680771        1
Hf       2.24226924       0.00000000       6.72680771        1
Ta       2.24226924       2.24226924       4.48453848        1
N        2.24226924       2.24226924       6.72680771        2
N        2.24226924       0.00000000       4.48453848        2
N        0.00000000       2.24226924       4.48453848        2
N        0.00000000       0.00000000       6.72680771        2
Ti       0.00000000       0.00000000       8.96907695        1
Nb       0.00000000       2.24226924      11.21134619        1
Nb       2.24226924       0.00000000      11.21134619        1
Hf       2.24226924       2.24226924       8.96907695        1
N        2.24226924       2.24226924      11.21134619        2
N        2.24226924       0.00000000       8.96907695        2
N        0.00000000       2.24226924       8.96907695        2
N        0.00000000       0.00000000      11.21134619        2
Nb       0.00000000       4.48453848       0.00000000        1
Ti       0.00000000       6.72680771       2.24226924        1
Ti       2.24226924       4.48453848       2.24226924        1
Zr       2.24226924       6.72680771       0.00000000        1
N        2.24226924       6.72680771       2.24226924        2
N        2.24226924       4.48453848       0.00000000        2
N        0.00000000       6.72680771       0.00000000        2
N        0.00000000       4.48453848       2.24226924        2
Hf       0.00000000       4.48453848       4.48453848        1
Ti       0.00000000       6.72680771       6.72680771        1
Nb       2.24226924       4.48453848       6.72680771        1
Hf       2.24226924       6.72680771       4.48453848        1
N        2.24226924       6.72680771       6.72680771        2
N        2.24226924       4.48453848       4.48453848        2
N        0.00000000       6.72680771       4.48453848        2
N        0.00000000       4.48453848       6.72680771        2
Nb       0.00000000       4.48453848       8.96907695        1
Hf       0.00000000       6.72680771      11.21134619        1
Ti       2.24226924       4.48453848      11.21134619        1
Ta       2.24226924       6.72680771       8.96907695        1
N        2.24226924       6.72680771      11.21134619        2
N        2.24226924       4.48453848       8.96907695        2
N        0.00000000       6.72680771       8.96907695        2
N        0.00000000       4.48453848      11.21134619        2
Ta       0.00000000       8.96907695       0.00000000        1
Nb       0.00000000      11.21134619       2.24226924        1
Zr       2.24226924       8.96907695       2.24226924        1
Zr       2.24226924      11.21134619       0.00000000        1
N        2.24226924      11.21134619       2.24226924        2
N        2.24226924       8.96907695       0.00000000        2
N        0.00000000      11.21134619       0.00000000        2
N        0.00000000       8.96907695       2.24226924        2
Nb       0.00000000       8.96907695       4.48453848        1
Hf       0.00000000      11.21134619       6.72680771        1
Zr       2.24226924       8.96907695       6.72680771        1
Ta       2.24226924      11.21134619       4.48453848        1
N        2.24226924      11.21134619       6.72680771        2
N        2.24226924       8.96907695       4.48453848        2
N        0.00000000      11.21134619       4.48453848        2
N        0.00000000       8.96907695       6.72680771        2
Ti       0.00000000       8.96907695       8.96907695        1
Zr       0.00000000      11.21134619      11.21134619        1
Ta       2.24226924       8.96907695      11.21134619        1
Zr       2.24226924      11.21134619       8.96907695        1
N        2.24226924      11.21134619      11.21134619        2
N        2.24226924       8.96907695       8.96907695        2
N        0.00000000      11.21134619       8.96907695        2
N        0.00000000       8.96907695      11.21134619        2
Zr       4.48453848       0.00000000       0.00000000        1
Nb       4.48453848       2.24226924       2.24226924        1
Zr       6.72680771       0.00000000       2.24226924        1
Hf       6.72680771       2.24226924       0.00000000        1
N        6.72680771       2.24226924       2.24226924        2
N        6.72680771       0.00000000       0.00000000        2
N        4.48453848       2.24226924       0.00000000        2
N        4.48453848       0.00000000       2.24226924        2
Hf       4.48453848       0.00000000       4.48453848        1
Zr       4.48453848       2.24226924       6.72680771        1
Ti       6.72680771       0.00000000       6.72680771        1
Hf       6.72680771       2.24226924       4.48453848        1
N        6.72680771       2.24226924       6.72680771        2
N        6.72680771       0.00000000       4.48453848        2
N        4.48453848       2.24226924       4.48453848        2
N        4.48453848       0.00000000       6.72680771        2
Ta       4.48453848       0.00000000       8.96907695        1
Nb       4.48453848       2.24226924      11.21134619        1
Zr       6.72680771       0.00000000      11.21134619        1
Ta       6.72680771       2.24226924       8.96907695        1
N        6.72680771       2.24226924      11.21134619        2
N        6.72680771       0.00000000       8.96907695        2
N        4.48453848       2.24226924       8.96907695        2
N        4.48453848       0.00000000      11.21134619        2
Ti       4.48453848       4.48453848       0.00000000        1
Zr       4.48453848       6.72680771       2.24226924        1
Ta       6.72680771       4.48453848       2.24226924        1
Hf       6.72680771       6.72680771       0.00000000        1
N        6.72680771       6.72680771       2.24226924        2
N        6.72680771       4.48453848       0.00000000        2
N        4.48453848       6.72680771       0.00000000        2
N        4.48453848       4.48453848       2.24226924        2
Zr       4.48453848       4.48453848       4.48453848        1
Nb       4.48453848       6.72680771       6.72680771        1
Zr       6.72680771       4.48453848       6.72680771        1
Ta       6.72680771       6.72680771       4.48453848        1
N        6.72680771       6.72680771       6.72680771        2
N        6.72680771       4.48453848       4.48453848        2
N        4.48453848       6.72680771       4.48453848        2
N        4.48453848       4.48453848       6.72680771        2
Ti       4.48453848       4.48453848       8.96907695        1
Ti       4.48453848       6.72680771      11.21134619        1
Zr       6.72680771       4.48453848      11.21134619        1
Zr       6.72680771       6.72680771       8.96907695        1
N        6.72680771       6.72680771      11.21134619        2
N        6.72680771       4.48453848       8.96907695        2
N        4.48453848       6.72680771       8.96907695        2
N        4.48453848       4.48453848      11.21134619        2
Ti       4.48453848       8.96907695       0.00000000        1
Ti       4.48453848      11.21134619       2.24226924        1
Ta       6.72680771       8.96907695       2.24226924        1
Zr       6.72680771      11.21134619       0.00000000        1
N        6.72680771      11.21134619       2.24226924        2
N        6.72680771       8.96907695       0.00000000        2
N        4.48453848      11.21134619       0.00000000        2
N        4.48453848       8.96907695       2.24226924        2
Ta       4.48453848       8.96907695       4.48453848        1
Nb       4.48453848      11.21134619       6.72680771        1
Ti       6.72680771       8.96907695       6.72680771        1
Hf       6.72680771      11.21134619       4.48453848        1
N        6.72680771      11.21134619       6.72680771        2
N        6.72680771       8.96907695       4.48453848        2
N        4.48453848      11.21134619       4.48453848        2
N        4.48453848       8.96907695       6.72680771        2
Zr       4.48453848       8.96907695       8.96907695        1
Ta       4.48453848      11.21134619      11.21134619        1
Nb       6.72680771       8.96907695      11.21134619        1
Nb       6.72680771      11.21134619       8.96907695        1
N        6.72680771      11.21134619      11.21134619        2
N        6.72680771       8.96907695       8.96907695        2
N        4.48453848      11.21134619       8.96907695        2
N        4.48453848       8.96907695      11.21134619        2
Zr       8.96907695       0.00000000       0.00000000        1
Nb       8.96907695       2.24226924       2.24226924        1
Ta      11.21134619       0.00000000       2.24226924        1
Zr      11.21134619       2.24226924       0.00000000        1
N       11.21134619       2.24226924       2.24226924        2
N       11.21134619       0.00000000       0.00000000        2
N        8.96907695       2.24226924       0.00000000        2
N        8.96907695       0.00000000       2.24226924        2
Ta       8.96907695       0.00000000       4.48453848        1
Ti       8.96907695       2.24226924       6.72680771        1
Zr      11.21134619       0.00000000       6.72680771        1
Ti      11.21134619       2.24226924       4.48453848        1
N       11.21134619       2.24226924       6.72680771        2
N       11.21134619       0.00000000       4.48453848        2
N        8.96907695       2.24226924       4.48453848        2
N        8.96907695       0.00000000       6.72680771        2
Hf       8.96907695       0.00000000       8.96907695        1
Ti       8.96907695       2.24226924      11.21134619        1
Ti      11.21134619       0.00000000      11.21134619        1
Hf      11.21134619       2.24226924       8.96907695        1
N       11.21134619       2.24226924      11.21134619        2
N       11.21134619       0.00000000       8.96907695        2
N        8.96907695       2.24226924       8.96907695        2
N        8.96907695       0.00000000      11.21134619        2
Zr       8.96907695       4.48453848       0.00000000        1
Nb       8.96907695       6.72680771       2.24226924        1
Ti      11.21134619       4.48453848       2.24226924        1
Hf      11.21134619       6.72680771       0.00000000        1
N       11.21134619       6.72680771       2.24226924        2
N       11.21134619       4.48453848       0.00000000        2
N        8.96907695       6.72680771       0.00000000        2
N        8.96907695       4.48453848       2.24226924        2
Zr       8.96907695       4.48453848       4.48453848        1
Hf       8.96907695       6.72680771       6.72680771        1
Ta      11.21134619       4.48453848       6.72680771        1
Hf      11.21134619       6.72680771       4.48453848        1
N       11.21134619       6.72680771       6.72680771        2
N       11.21134619       4.48453848       4.48453848        2
N        8.96907695       6.72680771       4.48453848        2
N        8.96907695       4.48453848       6.72680771        2
Nb       8.96907695       4.48453848       8.96907695        1
Ta       8.96907695       6.72680771      11.21134619        1
Nb      11.21134619       4.48453848      11.21134619        1
Hf      11.21134619       6.72680771       8.96907695        1
N       11.21134619       6.72680771      11.21134619        2
N       11.21134619       4.48453848       8.96907695        2
N        8.96907695       6.72680771       8.96907695        2
N        8.96907695       4.48453848      11.21134619        2
Nb       8.96907695       8.96907695       0.00000000        1
Ti       8.96907695      11.21134619       2.24226924        1
Ti      11.21134619       8.96907695       2.24226924        1
Ta      11.21134619      11.21134619       0.00000000        1
N       11.21134619      11.21134619       2.24226924        2
N       11.21134619       8.96907695       0.00000000        2
N        8.96907695      11.21134619       0.00000000        2
N        8.96907695       8.96907695       2.24226924        2
Hf       8.96907695       8.96907695       4.48453848        1
Nb       8.96907695      11.21134619       6.72680771        1
Nb      11.21134619       8.96907695       6.72680771        1
Hf      11.21134619      11.21134619       4.48453848        1
N       11.21134619      11.21134619       6.72680771        2
N       11.21134619       8.96907695       4.48453848        2
N        8.96907695      11.21134619       4.48453848        2
N        8.96907695       8.96907695       6.72680771        2
Ti       8.96907695       8.96907695       8.96907695        1
Hf       8.96907695      11.21134619      11.21134619        1
Ta      11.21134619       8.96907695      11.21134619        1
Ta      11.21134619      11.21134619       8.96907695        1
N       11.21134619      11.21134619      11.21134619        2
N       11.21134619       8.96907695       8.96907695        2
N        8.96907695      11.21134619       8.96907695        2
N        8.96907695       8.96907695      11.21134619        2
216
Lattice="13.453615425789224 0.0 0.0 0.0 13.453615425789224 0.0 0.0 0.0 13.453615425789224" Properties=species:S:1:pos:R:3:tags:I:1 sqs_abs_alpha=0.11441727104064764 energy=-2238.669680577836 mc_step=450 energy_method=uma rosenbluth_W_new=6.27356445022718 rosenbluth_W_old=5.330870702448738 pbc="T T T"
Hf       0.00000000       0.00000000       0.00000000        1
Zr       0.00000000       2.24226924       2.24226924        1
Ta       2.24226924       0.00000000       2.24226924        1
Hf       2.24226924       2.24226924       0.00000000        1
N        2.24226924       2.24226924       2.24226924        2
N        2.24226924       0.00000000       0.00000000        2
N        0.00000000       2.24226924       0.00000000        2
N        0.00000000       0.00000000       2.24226924        2
Nb       0.00000000       0.00000000       4.48453848        1
Ta       0.00000000       2.24226924       6.72680771        1
Ti       2.24226924       0.00000000       6.72680771        1
Ta       2.24226924       2.24226924       4.48453848        1
N        2.24226924       2.24226924       6.72680771        2
N        2.24226924       0.00000000       4.48453848        2
N        0.00000000       2.24226924       4.48453848        2
N        0.00000000       0.00000000       6.72680771        2
Ti       0.00000000       0.00000000       8.96907695        1
Nb       0.00000000       2.24226924      11.21134619        1
Ta       2.24226924       0.00000000      11.21134619        1
Hf       2.24226924       2.24226924       8.96907695        1
N        2.24226924       2.24226924      11.21134619        2
N        2.24226924       0.00000000       8.96907695        2
N        0.00000000       2.24226924       8.96907695        2
N        0.00000000       0.00000000      11.21134619        2
Nb       0.00000000       4.48453848       0.00000000        1
Nb       0.00000000       6.72680771       2.24226924        1
Ti       2.24226924       4.48453848       2.24226924        1
Zr       2.24226924       6.72680771       0.00000000        1
N        2.24226924       6.72680771       2.24226924        2
N        2.24226924       4.48453848       0.00000000        2
N        0.00000000       6.72680771       0.00000000        2
N        0.00000000       4.48453848       2.24226924        2
Zr       0.00000000       4.48453848       4.48453848        1
Ti       0.00000000       6.72680771       6.72680771        1
Nb       2.24226924       4.48453848       6.72680771        1
Hf       2.24226924       6.72680771       4.48453848        1
N        2.24226924       6.72680771       6.72680771        2
N        2.24226924       4.48453848       4.48453848        2
N        0.00000000       6.72680771       4.48453848        2
N        0.00000000       4.48453848       6.72680771        2
Nb       0.00000000       4.48453848       8.96907695        1
Zr       0.00000000       6.72680771      11.21134619        1
Ta       2.24226924       4.48453848      11.21134619        1
Ta       2.24226924       6.72680771       8.96907695        1
N        2.24226924       6.72680771      11.21134619        2
N        2.24226924       4.48453848       8.96907695        2
N        0.00000000       6.72680771       8.96907695        2
N        0.00000000       4.48453848      11.21134619        2
Nb       0.00000000       8.96907695       0.00000000        1
Ta       0.00000000      11.21134619       2.24226924        1
Zr       2.24226924       8.96907695       2.24226924        1
Ti       2.24226924      11.21134619       0.00000000        1
N        2.24226924      11.21134619       2.24226924        2
N        2.24226924       8.96907695       0.00000000        2
N        0.00000000      11.21134619       0.00000000        2
N        0.00000000       8.96907695       2.24226924        2
Hf       0.00000000       8.96907695       4.48453848        1
Hf       0.00000000      11.21134619       6.72680771        1
Zr       2.24226924       8.96907695       6.72680771        1
Ti       2.24226924      11.21134619       4.48453848        1
N        2.24226924      11.21134619       6.72680771        2
N        2.24226924       8.96907695       4.48453848        2
N        0.00000000      11.21134619       4.48453848        2
N        0.00000000       8.96907695       6.72680771        2
Ti       0.00000000       8.96907695       8.96907695        1
Ta       0.00000000      11.21134619      11.21134619        1
Zr       2.24226924       8.96907695      11.21134619        1
Zr       2.24226924      11.21134619       8.96907695        1
N        2.24226924      11.21134619      11.21134619        2
N        2.24226924       8.96907695       8.96907695        2
N        0.00000000      11.21134619       8.96907695        2
N        0.00000000       8.96907695      11.21134619        2
Hf       4.48453848       0.00000000       0.00000000        1
Nb       4.48453848       2.24226924       2.24226924        1
Hf       6.72680771       0.00000000       2.24226924        1
Hf       6.72680771       2.24226924       0.00000000        1
N        6.72680771       2.24226924       2.24226924        2
N        6.72680771       0.00000000       0.00000000        2
N        4.48453848       2.24226924       0.00000000        2
N        4.48453848       0.00000000       2.24226924        2
Hf       4.48453848       0.00000000       4.48453848        1
Zr       4.48453848       2.24226924       6.72680771        1
Ti       6.72680771       0.00000000       6.72680771        1
Ti       6.72680771       2.24226924       4.48453848        1
N        6.72680771       2.24226924       6.72680771        2
N        6.72680771       0.00000000       4.48453848        2
N        4.48453848       2.24226924       4.48453848        2
N        4.48453848       0.00000000       6.72680771        2
Nb       4.48453848       0.00000000       8.96907695        1
Ta       4.48453848       2.24226924      11.21134619        1
Nb       6.72680771       0.00000000      11.21134619        1
Ta       6.72680771       2.24226924       8.96907695        1
N        6.72680771       2.24226924      11.21134619        2
N        6.72680771       0.00000000       8.96907695        2
N        4.48453848       2.24226924       8.96907695        2
N        4.48453848       0.00000000      11.21134619        2
Ti       4.48453848       4.48453848       0.00000000        1
Hf       4.48453848       6.72680771       2.24226924        1
Ta       6.72680771       4.48453848       2.24226924        1
Zr       6.72680771       6.72680771       0.00000000        1
N        6.72680771       6.72680771       2.24226924        2
N        6.72680771       4.48453848       0.00000000        2
N        4.48453848       6.72680771       0.00000000        2
N        4.48453848       4.48453848       2.24226924        2
Hf       4.48453848       4.48453848       4.48453848        1
Nb       4.48453848       6.72680771       6.72680771        1
Zr       6.72680771       4.48453848       6.72680771        1
Ta       6.72680771       6.72680771       4.48453848        1
N        6.72680771       6.72680771       6.72680771        2
N        6.72680771       4.48453848       4.48453848        2
N        4.48453848       6.72680771       4.48453848        2
N        4.48453848       4.48453848       6.72680771        2
Ti       4.48453848       4.48453848       8.96907695        1
Hf       4.48453848       6.72680771      11.21134619        1
Zr       6.72680771       4.48453848      11.21134619        1
Zr       6.72680771       6.72680771       8.96907695        1
N        6.72680771       6.72680771      11.21134619        2
N        6.72680771       4.48453848       8.96907695        2
N        4.48453848       6.72680771       8.96907695        2
N        4.48453848       4.48453848      11.21134619        2
Hf       4.48453848       8.96907695       0.00000000        1
Ti       4.48453848      11.21134619       2.24226924        1
Hf       6.72680771       8.96907695       2.24226924        1
Ta       6.72680771      11.21134619       0.00000000        1
N        6.72680771      11.21134619       2.24226924        2
N        6.72680771       8.96907695       0.00000000        2
N        4.48453848      11.21134619       0.00000000        2
N        4.48453848       8.96907695       2.24226924        2
Ta       4.48453848       8.96907695       4.48453848        1
Nb       4.48453848      11.21134619       6.72680771        1
Ta       6.72680771       8.96907695       6.72680771        1
Zr       6.72680771      11.21134619       4.48453848        1
N        6.72680771      11.21134619       6.72680771        2
N        6.72680771       8.96907695       4.48453848        2
N        4.48453848      11.21134619       4.48453848        2
N        4.48453848       8.96907695       6.72680771        2
Ti       4.48453848       8.96907695       8.96907695        1
Ti       4.48453848      11.21134619      11.21134619        1
Nb       6.72680771       8.96907695      11.21134619        1
Hf       6.72680771      11.21134619       8.96907695        1
N        6.72680771      11.21134619      11.21134619        2
N        6.72680771       8.96907695       8.96907695        2
N        4.48453848      11.21134619       8.96907695        2
N        4.48453848       8.96907695      11.21134619        2
Ti       8.96907695       0.00000000       0.00000000        1
Ti       8.96907695       2.24226924       2.24226924        1
Ta      11.21134619       0.00000000       2.24226924        1
Zr      11.21134619       2.24226924       0.00000000        1
N       11.21134619       2.24226924       2.24226924        2
N       11.21134619       0.00000000       0.00000000        2
N        8.96907695       2.24226924       0.00000000        2
N        8.96907695       0.00000000       2.24226924        2
Ta       8.96907695       0.00000000       4.48453848        1
Ti       8.96907695       2.24226924       6.72680771        1
Hf      11.21134619       0.00000000       6.72680771        1
Ti      11.21134619       2.24226924       4.48453848        1
N       11.21134619       2.24226924       6.72680771        2
N       11.21134619       0.00000000       4.48453848        2
N        8.96907695       2.24226924       4.48453848        2
N        8.96907695       0.00000000       6.72680771        2
Hf       8.96907695       0.00000000       8.96907695        1
Ti       8.96907695       2.24226924      11.21134619        1
Hf      11.21134619       0.00000000      11.21134619        1
Hf      11.21134619       2.24226924       8.96907695        1
N       11.21134619       2.24226924      11.21134619        2
N       11.21134619       0.00000000       8.96907695        2
N        8.96907695       2.24226924       8.96907695        2
N        8.96907695       0.00000000      11.21134619        2
Nb       8.96907695       4.48453848       0.00000000        1
Ti       8.96907695       6.72680771       2.24226924        1
Nb      11.21134619       4.48453848       2.24226924        1
Ta      11.21134619       6.72680771       0.00000000        1
N       11.21134619       6.72680771       2.24226924        2
N       11.21134619       4.48453848       0.00000000        2
N        8.96907695       6.72680771       0.00000000        2
N        8.96907695       4.48453848       2.24226924        2
Zr       8.96907695       4.48453848       4.48453848        1
Zr       8.96907695       6.72680771       6.72680771        1
Ta      11.21134619       4.48453848       6.72680771        1
Ti      11.21134619       6.72680771       4.48453848        1
N       11.21134619       6.72680771       6.72680771        2
N       11.21134619       4.48453848       4.48453848        2
N        8.96907695       6.72680771       4.48453848        2
N        8.96907695       4.48453848       6.72680771        2
Nb       8.96907695       4.48453848       8.96907695        1
Zr       8.96907695       6.72680771      11.21134619        1
Nb      11.21134619       4.48453848      11.21134619        1
Zr      11.21134619       6.72680771       8.96907695        1
N       11.21134619       6.72680771      11.21134619        2
N       11.21134619       4.48453848       8.96907695        2
N        8.96907695       6.72680771       8.96907695        2
N        8.96907695       4.48453848      11.21134619        2
Nb       8.96907695       8.96907695       0.00000000        1
Zr       8.96907695      11.21134619       2.24226924        1
Hf      11.21134619       8.96907695       2.24226924        1
Nb      11.21134619      11.21134619       0.00000000        1
N       11.21134619      11.21134619       2.24226924        2
N       11.21134619       8.96907695       0.00000000        2
N        8.96907695      11.21134619       0.00000000        2
N        8.96907695       8.96907695       2.24226924        2
Ta       8.96907695       8.96907695       4.48453848        1
Ta       8.96907695      11.21134619       6.72680771        1
Nb      11.21134619       8.96907695       6.72680771        1
Ti      11.21134619      11.21134619       4.48453848        1
N       11.21134619      11.21134619       6.72680771        2
N       11.21134619       8.96907695       4.48453848        2
N        8.96907695      11.21134619       4.48453848        2
N        8.96907695       8.96907695       6.72680771        2
Hf       8.96907695       8.96907695       8.96907695        1
Zr       8.96907695      11.21134619      11.21134619        1
Zr      11.21134619       8.96907695      11.21134619        1
Nb      11.21134619      11.21134619       8.96907695        1
N       11.21134619      11.21134619      11.21134619        2
N       11.21134619       8.96907695       8.96907695        2
N        8.96907695      11.21134619       8.96907695        2
N        8.96907695       8.96907695      11.21134619        2
216
Lattice="13.453615425789224 0.0 0.0 0.0 13.453615425789224 0.0 0.0 0.0 13.453615425789224" Properties=species:S:1:pos:R:3:tags:I:1 sqs_abs_alpha=0.11607016360263116 energy=-2238.416190685365 mc_step=500 energy_method=uma rosenbluth_W_new=4.5851391621591695 rosenbluth_W_old=3.710194472080116 pbc="T T T"
Nb       0.00000000       0.00000000       0.00000000        1
Zr       0.00000000       2.24226924       2.24226924        1
Ta       2.24226924       0.00000000       2.24226924        1
Nb       2.24226924       2.24226924       0.00000000        1
N        2.24226924       2.24226924       2.24226924        2
N        2.24226924       0.00000000       0.00000000        2
N        0.00000000       2.24226924       0.00000000        2
N        0.00000000       0.00000000       2.24226924        2
Ti       0.00000000       0.00000000       4.48453848        1
Ti       0.00000000       2.24226924       6.72680771        1
Zr       2.24226924       0.00000000       6.72680771        1
Nb       2.24226924       2.24226924       4.48453848        1
N        2.24226924       2.24226924       6.72680771        2
N        2.24226924       0.00000000       4.48453848        2
N        0.00000000       2.24226924       4.48453848        2
N        0.00000000       0.00000000       6.72680771        2
Nb       0.00000000       0.00000000       8.96907695        1
Nb       0.00000000       2.24226924      11.21134619        1
Nb       2.24226924       0.00000000      11.21134619        1
Hf       2.24226924       2.24226924       8.96907695        1
N        2.24226924       2.24226924      11.21134619        2
N        2.24226924       0.00000000       8.96907695        2
N        0.00000000       2.24226924       8.96907695        2
N        0.00000000       0.00000000      11.21134619        2
Ti       0.00000000       4.48453848       0.00000000        1
Ta       0.00000000       6.72680771       2.24226924        1
Ta       2.24226924       4.48453848       2.24226924        1
Zr       2.24226924       6.72680771       0.00000000        1
N        2.24226924       6.72680771       2.24226924        2
N        2.24226924       4.48453848       0.00000000        2
N        0.00000000       6.72680771       0.00000000        2
N        0.00000000       4.48453848       2.24226924        2
Hf       0.00000000       4.48453848       4.48453848        1
Nb       0.00000000       6.72680771       6.72680771        1
Ta       2.24226924       4.48453848       6.72680771        1
Ti       2.24226924       6.72680771       4.48453848        1
N        2.24226924       6.72680771       6.72680771        2
N        2.24226924       4.48453848       4.48453848        2
N        0.00000000       6.72680771       4.48453848        2
N        0.00000000       4.48453848       6.72680771        2
Nb       0.00000000       4.48453848       8.96907695        1
Zr       0.00000000       6.72680771      11.21134619        1
Hf       2.24226924       4.48453848      11.21134619        1
Hf       2.24226924       6.72680771       8.96907695        1
N        2.24226924       6.72680771      11.21134619        2
N        2.24226924       4.48453848       8.96907695        2
N        0.00000000       6.72680771       8.96907695        2
N        0.00000000       4.48453848      11.21134619        2
Hf       0.00000000       8.96907695       0.00000000        1
Nb       0.00000000      11.21134619       2.24226924        1
Zr       2.24226924       8.96907695       2.24226924        1
Zr       2.24226924      11.21134619       0.00000000        1
N        2.24226924      11.21134619       2.24226924        2
N        2.24226924       8.96907695       0.00000000        2
N        0.00000000      11.21134619       0.00000000        2
N        0.00000000       8.96907695       2.24226924        2
Ta       0.00000000       8.96907695       4.48453848        1
Zr       0.00000000      11.21134619       6.72680771        1
Ti       2.24226924       8.96907695       6.72680771        1
Ti       2.24226924      11.21134619       4.48453848        1
N        2.24226924      11.21134619       6.72680771        2
N        2.24226924       8.96907695       4.48453848        2
N        0.00000000      11.21134619       4.48453848        2
N        0.00000000       8.96907695       6.72680771        2
Nb       0.00000000       8.96907695       8.96907695        1
Ti       0.00000000      11.21134619      11.21134619        1
Zr       2.24226924       8.96907695      11.21134619        1
Zr       2.24226924      11.21134619       8.96907695        1
N        2.24226924      11.21134619      11.21134619        2
N        2.24226924       8.96907695       8.96907695        2
N        0.00000000      11.21134619       8.96907695        2
N        0.00000000       8.96907695      11.21134619        2
Hf       4.48453848       0.00000000       0.00000000        1
Zr       4.48453848       2.24226924       2.24226924        1
Hf       6.72680771       0.00000000       2.24226924        1
Ta       6.72680771       2.24226924       0.00000000        1
N        6.72680771       2.24226924       2.24226924        2
N        6.72680771       0.00000000       0.00000000        2
N        4.48453848       2.24226924       0.00000000        2
N        4.48453848       0.00000000       2.24226924        2
Ta       4.48453848       0.00000000       4.48453848        1
Zr       4.48453848       2.24226924       6.72680771        1
Nb       6.72680771       0.00000000       6.72680771        1
Ti       6.72680771       2.24226924       4.48453848        1
N        6.72680771       2.24226924       6.72680771        2
N        6.72680771       0.00000000       4.48453848        2
N        4.48453848       2.24226924       4.48453848        2
N        4.48453848       0.00000000       6.72680771        2
Nb       4.48453848       0.00000000       8.96907695        1
Hf       4.48453848       2.24226924      11.21134619        1
Nb       6.72680771       0.00000000      11.21134619        1
Ta       6.72680771       2.24226924       8.96907695        1
N        6.72680771       2.24226924      11.21134619        2
N        6.72680771       0.00000000       8.96907695        2
N        4.48453848       2.24226924       8.96907695        2
N        4.48453848       0.00000000      11.21134619        2
Ti       4.48453848       4.48453848       0.00000000        1
Nb       4.48453848       6.72680771       2.24226924        1
Ta       6.72680771       4.48453848       2.24226924        1
Zr       6.72680771       6.72680771       0.00000000        1
N        6.72680771       6.72680771       2.24226924        2
N        6.72680771       4.48453848       0.00000000        2
N        4.48453848       6.72680771       0.00000000        2
N        4.48453848       4.48453848       2.24226924        2
Hf       4.48453848       4.48453848       4.48453848        1
Nb       4.48453848       6.72680771       6.72680771        1
Hf       6.72680771       4.48453848       6.72680771        1
Ta       6.72680771       6.72680771       4.48453848        1
N        6.72680771       6.72680771       6.72680771        2
N        6.72680771       4.48453848       4.48453848        2
N        4.48453848       6.72680771       4.48453848        2
N        4.48453848       4.48453848       6.72680771        2
Ti       4.48453848       4.48453848       8.96907695        1
Hf       4.48453848       6.72680771      11.21134619        1
Hf       6.72680771       4.48453848      11.21134619        1
Ti       6.72680771       6.72680771       8.96907695        1
N        6.72680771       6.72680771      11.21134619        2
N        6.72680771       4.48453848       8.96907695        2
N        4.48453848       6.72680771       8.96907695        2
N        4.48453848       4.48453848      11.21134619        2
Nb       4.48453848       8.96907695       0.00000000        1
Ti       4.48453848      11.21134619       2.24226924        1
Hf       6.72680771       8.96907695       2.24226924        1
Ta       6.72680771      11.21134619       0.00000000        1
N        6.72680771      11.21134619       2.24226924        2
N        6.72680771       8.96907695       0.00000000        2
N        4.48453848      11.21134619       0.00000000        2
N        4.48453848       8.96907695       2.24226924        2
Ta       4.48453848       8.96907695       4.48453848        1
Ta       4.48453848      11.21134619       6.72680771        1
Ta       6.72680771       8.96907695       6.72680771        1
Zr       6.72680771      11.21134619       4.48453848        1
N        6.72680771      11.21134619       6.72680771        2
N        6.72680771       8.96907695       4.48453848        2
N        4.48453848      11.21134619       4.48453848        2
N        4.48453848       8.96907695       6.72680771        2
Zr       4.48453848       8.96907695       8.96907695        1
Ti       4.48453848      11.21134619      11.21134619        1
Nb       6.72680771       8.96907695      11.21134619        1
Hf       6.72680771      11.21134619       8.96907695        1
N        6.72680771      11.21134619      11.21134619        2
N        6.72680771       8.96907695       8.96907695        2
N        4.48453848      11.21134619       8.96907695        2
N        4.48453848       8.96907695      11.21134619        2
Ti       8.96907695       0.00000000       0.00000000        1
Ta       8.96907695       2.24226924       2.24226924        1
Hf      11.21134619       0.00000000       2.24226924        1
Zr      11.21134619       2.24226924       0.00000000        1
N       11.21134619       2.24226924       2.24226924        2
N       11.21134619       0.00000000       0.00000000        2
N        8.96907695       2.24226924       0.00000000        2
N        8.96907695       0.00000000       2.24226924        2
Ta       8.96907695       0.00000000       4.48453848        1
Zr       8.96907695       2.24226924       6.72680771        1
Ta      11.21134619       0.00000000       6.72680771        1
Hf      11.21134619       2.24226924       4.48453848        1
N       11.21134619       2.24226924       6.72680771        2
N       11.21134619       0.00000000       4.48453848        2
N        8.96907695       2.24226924       4.48453848        2
N        8.96907695       0.00000000       6.72680771        2
Zr       8.96907695       0.00000000       8.96907695        1
Hf       8.96907695       2.24226924      11.21134619        1
Hf      11.21134619       0.00000000      11.21134619        1
Hf      11.21134619       2.24226924       8.96907695        1
N       11.21134619       2.24226924      11.21134619        2
N       11.21134619       0.00000000       8.96907695        2
N        8.96907695       2.24226924       8.96907695        2
N        8.96907695       0.00000000      11.21134619        2
Ta       8.96907695       4.48453848       0.00000000        1
Ti       8.96907695       6.72680771       2.24226924        1
Ti      11.21134619       4.48453848       2.24226924        1
Ta      11.21134619       6.72680771       0.00000000        1
N       11.21134619       6.72680771       2.24226924        2
N       11.21134619       4.48453848       0.00000000        2
N        8.96907695       6.72680771       0.00000000        2
N        8.96907695       4.48453848       2.24226924        2
Zr       8.96907695       4.48453848       4.48453848        1
Ti       8.96907695       6.72680771       6.72680771        1
Hf      11.21134619       4.48453848       6.72680771        1
Ti      11.21134619       6.72680771       4.48453848        1
N       11.21134619       6.72680771       6.72680771        2
N       11.21134619       4.48453848       4.48453848        2
N        8.96907695       6.72680771       4.48453848        2
N        8.96907695       4.48453848       6.72680771        2
Nb       8.96907695       4.48453848       8.96907695        1
Hf       8.96907695       6.72680771      11.21134619        1
Ti      11.21134619       4.48453848      11.21134619        1
Nb      11.21134619       6.72680771       8.96907695        1
N       11.21134619       6.72680771      11.21134619        2
N       11.21134619       4.48453848       8.96907695        2
N        8.96907695       6.72680771       8.96907695        2
N        8.96907695       4.48453848      11.21134619        2
Nb       8.96907695       8.96907695       0.00000000        1
Ti       8.96907695      11.21134619       2.24226924        1
Ta      11.21134619       8.96907695       2.24226924        1
Zr      11.21134619      11.21134619       0.00000000        1
N       11.21134619      11.21134619       2.24226924        2
N       11.21134619       8.96907695       0.00000000        2
N        8.96907695      11.21134619       0.00000000        2
N        8.96907695       8.96907695       2.24226924        2
Zr       8.96907695       8.96907695       4.48453848        1
Ta       8.96907695      11.21134619       6.72680771        1
Nb      11.21134619       8.96907695       6.72680771        1
Ti      11.21134619      11.21134619       4.48453848        1
N       11.21134619      11.21134619       6.72680771        2
N       11.21134619       8.96907695       4.48453848        2
N        8.96907695      11.21134619       4.48453848        2
N        8.96907695       8.96907695       6.72680771        2
Hf       8.96907695       8.96907695       8.96907695        1
Zr       8.96907695      11.21134619      11.21134619        1
Zr      11.21134619       8.96907695      11.21134619        1
Ti      11.21134619      11.21134619       8.96907695        1
N       11.21134619      11.21134619      11.21134619        2
N       11.21134619       8.96907695       8.96907695        2
N        8.96907695      11.21134619       8.96907695        2
N        8.96907695       8.96907695      11.21134619        2
